# Plate Description Version 3
# HALCON Version 22.05 --  Tue Aug 23 15:59:02 2022
# Description of the standard calibration plate
# used for the camera calibration in HALCON
# (generated by create_caltab)
#
#

# 26 rows x 30 columns
# Width, height of calibration plate [meter]: 0.0775, 0.0582115
# Distance between mark centers [meter]: 0.0025

# Number of marks in y-dimension (rows)
r 26

# Number of marks in x-dimension (columns)
c 30

# offset of coordinate system in z-dimension [meter] (optional):
z 0

# rim of the calibration plate (min x, max y, max x, min y) [meter]:
o -0.039375 0.0280232303588026 0.038125 -0.0301882938682637

# polarity of the marks (light or dark):
p light

# number of finder pattern marks:
f 5

# position of the finder patterns (central mark):  x y [index]
15 13
6 6
24 6
6 20
24 20

# calibration marks:  x y radius [meter]

# calibration marks at y = -0.0281458 m
-0.03625 -0.0281458256229943 0.000625
-0.03375 -0.0281458256229943 0.000625
-0.03125 -0.0281458256229943 0.000625
-0.02875 -0.0281458256229943 0.000625
-0.02625 -0.0281458256229943 0.000625
-0.02375 -0.0281458256229943 0.000625
-0.02125 -0.0281458256229943 0.000625
-0.01875 -0.0281458256229943 0.000625
-0.01625 -0.0281458256229943 0.000625
-0.01375 -0.0281458256229943 0.000625
-0.01125 -0.0281458256229943 0.000625
-0.00875 -0.0281458256229943 0.000625
-0.00625 -0.0281458256229943 0.000625
-0.00375 -0.0281458256229943 0.000625
-0.00125 -0.0281458256229943 0.000625
0.00125 -0.0281458256229943 0.000625
0.00375 -0.0281458256229943 0.000625
0.00625 -0.0281458256229943 0.000625
0.00875 -0.0281458256229943 0.000625
0.01125 -0.0281458256229943 0.000625
0.01375 -0.0281458256229943 0.000625
0.01625 -0.0281458256229943 0.000625
0.01875 -0.0281458256229943 0.000625
0.02125 -0.0281458256229943 0.000625
0.02375 -0.0281458256229943 0.000625
0.02625 -0.0281458256229943 0.000625
0.02875 -0.0281458256229943 0.000625
0.03125 -0.0281458256229943 0.000625
0.03375 -0.0281458256229943 0.000625
0.03625 -0.0281458256229943 0.000625

# calibration marks at y = -0.0259808 m
-0.0375 -0.0259807621135332 0.000625
-0.035 -0.0259807621135332 0.000625
-0.0325 -0.0259807621135332 0.000625
-0.03 -0.0259807621135332 0.000625
-0.0275 -0.0259807621135332 0.000625
-0.025 -0.0259807621135332 0.000625
-0.0225 -0.0259807621135332 0.000625
-0.02 -0.0259807621135332 0.000625
-0.0175 -0.0259807621135332 0.000625
-0.015 -0.0259807621135332 0.000625
-0.0125 -0.0259807621135332 0.000625
-0.01 -0.0259807621135332 0.000625
-0.0075 -0.0259807621135332 0.000625
-0.005 -0.0259807621135332 0.000625
-0.0025 -0.0259807621135332 0.000625
0 -0.0259807621135332 0.000625
0.0025 -0.0259807621135332 0.000625
0.005 -0.0259807621135332 0.000625
0.0075 -0.0259807621135332 0.000625
0.01 -0.0259807621135332 0.000625
0.0125 -0.0259807621135332 0.000625
0.015 -0.0259807621135332 0.000625
0.0175 -0.0259807621135332 0.000625
0.02 -0.0259807621135332 0.000625
0.0225 -0.0259807621135332 0.000625
0.025 -0.0259807621135332 0.000625
0.0275 -0.0259807621135332 0.000625
0.03 -0.0259807621135332 0.000625
0.0325 -0.0259807621135332 0.000625
0.035 -0.0259807621135332 0.000625

# calibration marks at y = -0.0238157 m
-0.03625 -0.0238156986040721 0.000625
-0.03375 -0.0238156986040721 0.000625
-0.03125 -0.0238156986040721 0.000625
-0.02875 -0.0238156986040721 0.000625
-0.02625 -0.0238156986040721 0.000625
-0.02375 -0.0238156986040721 0.000625
-0.02125 -0.0238156986040721 0.000625
-0.01875 -0.0238156986040721 0.000625
-0.01625 -0.0238156986040721 0.000625
-0.01375 -0.0238156986040721 0.000625
-0.01125 -0.0238156986040721 0.000625
-0.00875 -0.0238156986040721 0.000625
-0.00625 -0.0238156986040721 0.000625
-0.00375 -0.0238156986040721 0.000625
-0.00125 -0.0238156986040721 0.000625
0.00125 -0.0238156986040721 0.000625
0.00375 -0.0238156986040721 0.000625
0.00625 -0.0238156986040721 0.000625
0.00875 -0.0238156986040721 0.000625
0.01125 -0.0238156986040721 0.000625
0.01375 -0.0238156986040721 0.000625
0.01625 -0.0238156986040721 0.000625
0.01875 -0.0238156986040721 0.000625
0.02125 -0.0238156986040721 0.000625
0.02375 -0.0238156986040721 0.000625
0.02625 -0.0238156986040721 0.000625
0.02875 -0.0238156986040721 0.000625
0.03125 -0.0238156986040721 0.000625
0.03375 -0.0238156986040721 0.000625
0.03625 -0.0238156986040721 0.000625

# calibration marks at y = -0.0216506 m
-0.0375 -0.021650635094611 0.000625
-0.035 -0.021650635094611 0.000625
-0.0325 -0.021650635094611 0.000625
-0.03 -0.021650635094611 0.000625
-0.0275 -0.021650635094611 0.000625
-0.025 -0.021650635094611 0.000625
-0.0225 -0.021650635094611 0.000625
-0.02 -0.021650635094611 0.000625
-0.0175 -0.021650635094611 0.000625
-0.015 -0.021650635094611 0.000625
-0.0125 -0.021650635094611 0.000625
-0.01 -0.021650635094611 0.000625
-0.0075 -0.021650635094611 0.000625
-0.005 -0.021650635094611 0.000625
-0.0025 -0.021650635094611 0.000625
0 -0.021650635094611 0.000625
0.0025 -0.021650635094611 0.000625
0.005 -0.021650635094611 0.000625
0.0075 -0.021650635094611 0.000625
0.01 -0.021650635094611 0.000625
0.0125 -0.021650635094611 0.000625
0.015 -0.021650635094611 0.000625
0.0175 -0.021650635094611 0.000625
0.02 -0.021650635094611 0.000625
0.0225 -0.021650635094611 0.000625
0.025 -0.021650635094611 0.000625
0.0275 -0.021650635094611 0.000625
0.03 -0.021650635094611 0.000625
0.0325 -0.021650635094611 0.000625
0.035 -0.021650635094611 0.000625

# calibration marks at y = -0.0194856 m
-0.03625 -0.0194855715851499 0.000625
-0.03375 -0.0194855715851499 0.000625
-0.03125 -0.0194855715851499 0.000625
-0.02875 -0.0194855715851499 0.000625
-0.02625 -0.0194855715851499 0.000625
-0.02375 -0.0194855715851499 0.000625
-0.02125 -0.0194855715851499 0.000625
-0.01875 -0.0194855715851499 0.000625
-0.01625 -0.0194855715851499 0.000625
-0.01375 -0.0194855715851499 0.000625
-0.01125 -0.0194855715851499 0.000625
-0.00875 -0.0194855715851499 0.000625
-0.00625 -0.0194855715851499 0.000625
-0.00375 -0.0194855715851499 0.000625
-0.00125 -0.0194855715851499 0.000625
0.00125 -0.0194855715851499 0.000625
0.00375 -0.0194855715851499 0.000625
0.00625 -0.0194855715851499 0.000625
0.00875 -0.0194855715851499 0.000625
0.01125 -0.0194855715851499 0.000625
0.01375 -0.0194855715851499 0.000625
0.01625 -0.0194855715851499 0.000625
0.01875 -0.0194855715851499 0.000625
0.02125 -0.0194855715851499 0.000625
0.02375 -0.0194855715851499 0.000625
0.02625 -0.0194855715851499 0.000625
0.02875 -0.0194855715851499 0.000625
0.03125 -0.0194855715851499 0.000625
0.03375 -0.0194855715851499 0.000625
0.03625 -0.0194855715851499 0.000625

# calibration marks at y = -0.0173205 m
-0.0375 -0.0173205080756888 0.000625
-0.035 -0.0173205080756888 0.000625
-0.0325 -0.0173205080756888 0.000625
-0.03 -0.0173205080756888 0.000625
-0.0275 -0.0173205080756888 0.000625
-0.025 -0.0173205080756888 0.000625
-0.0225 -0.0173205080756888 0.000625
-0.02 -0.0173205080756888 0.000625
-0.0175 -0.0173205080756888 0.000625
-0.015 -0.0173205080756888 0.000625
-0.0125 -0.0173205080756888 0.000625
-0.01 -0.0173205080756888 0.000625
-0.0075 -0.0173205080756888 0.000625
-0.005 -0.0173205080756888 0.000625
-0.0025 -0.0173205080756888 0.000625
0 -0.0173205080756888 0.000625
0.0025 -0.0173205080756888 0.000625
0.005 -0.0173205080756888 0.000625
0.0075 -0.0173205080756888 0.000625
0.01 -0.0173205080756888 0.000625
0.0125 -0.0173205080756888 0.000625
0.015 -0.0173205080756888 0.000625
0.0175 -0.0173205080756888 0.000625
0.02 -0.0173205080756888 0.000625
0.0225 -0.0173205080756888 0.000625
0.025 -0.0173205080756888 0.000625
0.0275 -0.0173205080756888 0.000625
0.03 -0.0173205080756888 0.000625
0.0325 -0.0173205080756888 0.000625
0.035 -0.0173205080756888 0.000625

# calibration marks at y = -0.0151554 m
-0.03625 -0.0151554445662277 0.000625
-0.03375 -0.0151554445662277 0.000625
-0.03125 -0.0151554445662277 0.000625
-0.02875 -0.0151554445662277 0.000625
-0.02625 -0.0151554445662277 0.000625
-0.02375 -0.0151554445662277 0.000625
-0.02125 -0.0151554445662277 0.000625
-0.01875 -0.0151554445662277 0.000625
-0.01625 -0.0151554445662277 0.000625
-0.01375 -0.0151554445662277 0.000625
-0.01125 -0.0151554445662277 0.000625
-0.00875 -0.0151554445662277 0.000625
-0.00625 -0.0151554445662277 0.000625
-0.00375 -0.0151554445662277 0.000625
-0.00125 -0.0151554445662277 0.000625
0.00125 -0.0151554445662277 0.000625
0.00375 -0.0151554445662277 0.000625
0.00625 -0.0151554445662277 0.000625
0.00875 -0.0151554445662277 0.000625
0.01125 -0.0151554445662277 0.000625
0.01375 -0.0151554445662277 0.000625
0.01625 -0.0151554445662277 0.000625
0.01875 -0.0151554445662277 0.000625
0.02125 -0.0151554445662277 0.000625
0.02375 -0.0151554445662277 0.000625
0.02625 -0.0151554445662277 0.000625
0.02875 -0.0151554445662277 0.000625
0.03125 -0.0151554445662277 0.000625
0.03375 -0.0151554445662277 0.000625
0.03625 -0.0151554445662277 0.000625

# calibration marks at y = -0.0129904 m
-0.0375 -0.0129903810567666 0.000625
-0.035 -0.0129903810567666 0.000625
-0.0325 -0.0129903810567666 0.000625
-0.03 -0.0129903810567666 0.000625
-0.0275 -0.0129903810567666 0.000625
-0.025 -0.0129903810567666 0.000625
-0.0225 -0.0129903810567666 0.000625
-0.02 -0.0129903810567666 0.000625
-0.0175 -0.0129903810567666 0.000625
-0.015 -0.0129903810567666 0.000625
-0.0125 -0.0129903810567666 0.000625
-0.01 -0.0129903810567666 0.000625
-0.0075 -0.0129903810567666 0.000625
-0.005 -0.0129903810567666 0.000625
-0.0025 -0.0129903810567666 0.000625
0 -0.0129903810567666 0.000625
0.0025 -0.0129903810567666 0.000625
0.005 -0.0129903810567666 0.000625
0.0075 -0.0129903810567666 0.000625
0.01 -0.0129903810567666 0.000625
0.0125 -0.0129903810567666 0.000625
0.015 -0.0129903810567666 0.000625
0.0175 -0.0129903810567666 0.000625
0.02 -0.0129903810567666 0.000625
0.0225 -0.0129903810567666 0.000625
0.025 -0.0129903810567666 0.000625
0.0275 -0.0129903810567666 0.000625
0.03 -0.0129903810567666 0.000625
0.0325 -0.0129903810567666 0.000625
0.035 -0.0129903810567666 0.000625

# calibration marks at y = -0.0108253 m
-0.03625 -0.0108253175473055 0.000625
-0.03375 -0.0108253175473055 0.000625
-0.03125 -0.0108253175473055 0.000625
-0.02875 -0.0108253175473055 0.000625
-0.02625 -0.0108253175473055 0.000625
-0.02375 -0.0108253175473055 0.000625
-0.02125 -0.0108253175473055 0.000625
-0.01875 -0.0108253175473055 0.000625
-0.01625 -0.0108253175473055 0.000625
-0.01375 -0.0108253175473055 0.000625
-0.01125 -0.0108253175473055 0.000625
-0.00875 -0.0108253175473055 0.000625
-0.00625 -0.0108253175473055 0.000625
-0.00375 -0.0108253175473055 0.000625
-0.00125 -0.0108253175473055 0.000625
0.00125 -0.0108253175473055 0.000625
0.00375 -0.0108253175473055 0.000625
0.00625 -0.0108253175473055 0.000625
0.00875 -0.0108253175473055 0.000625
0.01125 -0.0108253175473055 0.000625
0.01375 -0.0108253175473055 0.000625
0.01625 -0.0108253175473055 0.000625
0.01875 -0.0108253175473055 0.000625
0.02125 -0.0108253175473055 0.000625
0.02375 -0.0108253175473055 0.000625
0.02625 -0.0108253175473055 0.000625
0.02875 -0.0108253175473055 0.000625
0.03125 -0.0108253175473055 0.000625
0.03375 -0.0108253175473055 0.000625
0.03625 -0.0108253175473055 0.000625

# calibration marks at y = -0.00866025 m
-0.0375 -0.00866025403784439 0.000625
-0.035 -0.00866025403784439 0.000625
-0.0325 -0.00866025403784439 0.000625
-0.03 -0.00866025403784439 0.000625
-0.0275 -0.00866025403784439 0.000625
-0.025 -0.00866025403784439 0.000625
-0.0225 -0.00866025403784439 0.000625
-0.02 -0.00866025403784439 0.000625
-0.0175 -0.00866025403784439 0.000625
-0.015 -0.00866025403784439 0.000625
-0.0125 -0.00866025403784439 0.000625
-0.01 -0.00866025403784439 0.000625
-0.0075 -0.00866025403784439 0.000625
-0.005 -0.00866025403784439 0.000625
-0.0025 -0.00866025403784439 0.000625
0 -0.00866025403784439 0.000625
0.0025 -0.00866025403784439 0.000625
0.005 -0.00866025403784439 0.000625
0.0075 -0.00866025403784439 0.000625
0.01 -0.00866025403784439 0.000625
0.0125 -0.00866025403784439 0.000625
0.015 -0.00866025403784439 0.000625
0.0175 -0.00866025403784439 0.000625
0.02 -0.00866025403784439 0.000625
0.0225 -0.00866025403784439 0.000625
0.025 -0.00866025403784439 0.000625
0.0275 -0.00866025403784439 0.000625
0.03 -0.00866025403784439 0.000625
0.0325 -0.00866025403784439 0.000625
0.035 -0.00866025403784439 0.000625

# calibration marks at y = -0.00649519 m
-0.03625 -0.00649519052838329 0.000625
-0.03375 -0.00649519052838329 0.000625
-0.03125 -0.00649519052838329 0.000625
-0.02875 -0.00649519052838329 0.000625
-0.02625 -0.00649519052838329 0.000625
-0.02375 -0.00649519052838329 0.000625
-0.02125 -0.00649519052838329 0.000625
-0.01875 -0.00649519052838329 0.000625
-0.01625 -0.00649519052838329 0.000625
-0.01375 -0.00649519052838329 0.000625
-0.01125 -0.00649519052838329 0.000625
-0.00875 -0.00649519052838329 0.000625
-0.00625 -0.00649519052838329 0.000625
-0.00375 -0.00649519052838329 0.000625
-0.00125 -0.00649519052838329 0.000625
0.00125 -0.00649519052838329 0.000625
0.00375 -0.00649519052838329 0.000625
0.00625 -0.00649519052838329 0.000625
0.00875 -0.00649519052838329 0.000625
0.01125 -0.00649519052838329 0.000625
0.01375 -0.00649519052838329 0.000625
0.01625 -0.00649519052838329 0.000625
0.01875 -0.00649519052838329 0.000625
0.02125 -0.00649519052838329 0.000625
0.02375 -0.00649519052838329 0.000625
0.02625 -0.00649519052838329 0.000625
0.02875 -0.00649519052838329 0.000625
0.03125 -0.00649519052838329 0.000625
0.03375 -0.00649519052838329 0.000625
0.03625 -0.00649519052838329 0.000625

# calibration marks at y = -0.00433013 m
-0.0375 -0.00433012701892219 0.000625
-0.035 -0.00433012701892219 0.000625
-0.0325 -0.00433012701892219 0.000625
-0.03 -0.00433012701892219 0.000625
-0.0275 -0.00433012701892219 0.000625
-0.025 -0.00433012701892219 0.000625
-0.0225 -0.00433012701892219 0.000625
-0.02 -0.00433012701892219 0.000625
-0.0175 -0.00433012701892219 0.000625
-0.015 -0.00433012701892219 0.000625
-0.0125 -0.00433012701892219 0.000625
-0.01 -0.00433012701892219 0.000625
-0.0075 -0.00433012701892219 0.000625
-0.005 -0.00433012701892219 0.000625
-0.0025 -0.00433012701892219 0.000625
0 -0.00433012701892219 0.000625
0.0025 -0.00433012701892219 0.000625
0.005 -0.00433012701892219 0.000625
0.0075 -0.00433012701892219 0.000625
0.01 -0.00433012701892219 0.000625
0.0125 -0.00433012701892219 0.000625
0.015 -0.00433012701892219 0.000625
0.0175 -0.00433012701892219 0.000625
0.02 -0.00433012701892219 0.000625
0.0225 -0.00433012701892219 0.000625
0.025 -0.00433012701892219 0.000625
0.0275 -0.00433012701892219 0.000625
0.03 -0.00433012701892219 0.000625
0.0325 -0.00433012701892219 0.000625
0.035 -0.00433012701892219 0.000625

# calibration marks at y = -0.00216506 m
-0.03625 -0.0021650635094611 0.000625
-0.03375 -0.0021650635094611 0.000625
-0.03125 -0.0021650635094611 0.000625
-0.02875 -0.0021650635094611 0.000625
-0.02625 -0.0021650635094611 0.000625
-0.02375 -0.0021650635094611 0.000625
-0.02125 -0.0021650635094611 0.000625
-0.01875 -0.0021650635094611 0.000625
-0.01625 -0.0021650635094611 0.000625
-0.01375 -0.0021650635094611 0.000625
-0.01125 -0.0021650635094611 0.000625
-0.00875 -0.0021650635094611 0.000625
-0.00625 -0.0021650635094611 0.000625
-0.00375 -0.0021650635094611 0.000625
-0.00125 -0.0021650635094611 0.000625
0.00125 -0.0021650635094611 0.000625
0.00375 -0.0021650635094611 0.000625
0.00625 -0.0021650635094611 0.000625
0.00875 -0.0021650635094611 0.000625
0.01125 -0.0021650635094611 0.000625
0.01375 -0.0021650635094611 0.000625
0.01625 -0.0021650635094611 0.000625
0.01875 -0.0021650635094611 0.000625
0.02125 -0.0021650635094611 0.000625
0.02375 -0.0021650635094611 0.000625
0.02625 -0.0021650635094611 0.000625
0.02875 -0.0021650635094611 0.000625
0.03125 -0.0021650635094611 0.000625
0.03375 -0.0021650635094611 0.000625
0.03625 -0.0021650635094611 0.000625

# calibration marks at y = 0 m
-0.0375 0 0.000625
-0.035 0 0.000625
-0.0325 0 0.000625
-0.03 0 0.000625
-0.0275 0 0.000625
-0.025 0 0.000625
-0.0225 0 0.000625
-0.02 0 0.000625
-0.0175 0 0.000625
-0.015 0 0.000625
-0.0125 0 0.000625
-0.01 0 0.000625
-0.0075 0 0.000625
-0.005 0 0.000625
-0.0025 0 0.000625
0 0 0.000625
0.0025 0 0.000625
0.005 0 0.000625
0.0075 0 0.000625
0.01 0 0.000625
0.0125 0 0.000625
0.015 0 0.000625
0.0175 0 0.000625
0.02 0 0.000625
0.0225 0 0.000625
0.025 0 0.000625
0.0275 0 0.000625
0.03 0 0.000625
0.0325 0 0.000625
0.035 0 0.000625

# calibration marks at y = 0.00216506 m
-0.03625 0.0021650635094611 0.000625
-0.03375 0.0021650635094611 0.000625
-0.03125 0.0021650635094611 0.000625
-0.02875 0.0021650635094611 0.000625
-0.02625 0.0021650635094611 0.000625
-0.02375 0.0021650635094611 0.000625
-0.02125 0.0021650635094611 0.000625
-0.01875 0.0021650635094611 0.000625
-0.01625 0.0021650635094611 0.000625
-0.01375 0.0021650635094611 0.000625
-0.01125 0.0021650635094611 0.000625
-0.00875 0.0021650635094611 0.000625
-0.00625 0.0021650635094611 0.000625
-0.00375 0.0021650635094611 0.000625
-0.00125 0.0021650635094611 0.000625
0.00125 0.0021650635094611 0.000625
0.00375 0.0021650635094611 0.000625
0.00625 0.0021650635094611 0.000625
0.00875 0.0021650635094611 0.000625
0.01125 0.0021650635094611 0.000625
0.01375 0.0021650635094611 0.000625
0.01625 0.0021650635094611 0.000625
0.01875 0.0021650635094611 0.000625
0.02125 0.0021650635094611 0.000625
0.02375 0.0021650635094611 0.000625
0.02625 0.0021650635094611 0.000625
0.02875 0.0021650635094611 0.000625
0.03125 0.0021650635094611 0.000625
0.03375 0.0021650635094611 0.000625
0.03625 0.0021650635094611 0.000625

# calibration marks at y = 0.00433013 m
-0.0375 0.00433012701892219 0.000625
-0.035 0.00433012701892219 0.000625
-0.0325 0.00433012701892219 0.000625
-0.03 0.00433012701892219 0.000625
-0.0275 0.00433012701892219 0.000625
-0.025 0.00433012701892219 0.000625
-0.0225 0.00433012701892219 0.000625
-0.02 0.00433012701892219 0.000625
-0.0175 0.00433012701892219 0.000625
-0.015 0.00433012701892219 0.000625
-0.0125 0.00433012701892219 0.000625
-0.01 0.00433012701892219 0.000625
-0.0075 0.00433012701892219 0.000625
-0.005 0.00433012701892219 0.000625
-0.0025 0.00433012701892219 0.000625
0 0.00433012701892219 0.000625
0.0025 0.00433012701892219 0.000625
0.005 0.00433012701892219 0.000625
0.0075 0.00433012701892219 0.000625
0.01 0.00433012701892219 0.000625
0.0125 0.00433012701892219 0.000625
0.015 0.00433012701892219 0.000625
0.0175 0.00433012701892219 0.000625
0.02 0.00433012701892219 0.000625
0.0225 0.00433012701892219 0.000625
0.025 0.00433012701892219 0.000625
0.0275 0.00433012701892219 0.000625
0.03 0.00433012701892219 0.000625
0.0325 0.00433012701892219 0.000625
0.035 0.00433012701892219 0.000625

# calibration marks at y = 0.00649519 m
-0.03625 0.00649519052838329 0.000625
-0.03375 0.00649519052838329 0.000625
-0.03125 0.00649519052838329 0.000625
-0.02875 0.00649519052838329 0.000625
-0.02625 0.00649519052838329 0.000625
-0.02375 0.00649519052838329 0.000625
-0.02125 0.00649519052838329 0.000625
-0.01875 0.00649519052838329 0.000625
-0.01625 0.00649519052838329 0.000625
-0.01375 0.00649519052838329 0.000625
-0.01125 0.00649519052838329 0.000625
-0.00875 0.00649519052838329 0.000625
-0.00625 0.00649519052838329 0.000625
-0.00375 0.00649519052838329 0.000625
-0.00125 0.00649519052838329 0.000625
0.00125 0.00649519052838329 0.000625
0.00375 0.00649519052838329 0.000625
0.00625 0.00649519052838329 0.000625
0.00875 0.00649519052838329 0.000625
0.01125 0.00649519052838329 0.000625
0.01375 0.00649519052838329 0.000625
0.01625 0.00649519052838329 0.000625
0.01875 0.00649519052838329 0.000625
0.02125 0.00649519052838329 0.000625
0.02375 0.00649519052838329 0.000625
0.02625 0.00649519052838329 0.000625
0.02875 0.00649519052838329 0.000625
0.03125 0.00649519052838329 0.000625
0.03375 0.00649519052838329 0.000625
0.03625 0.00649519052838329 0.000625

# calibration marks at y = 0.00866025 m
-0.0375 0.00866025403784439 0.000625
-0.035 0.00866025403784439 0.000625
-0.0325 0.00866025403784439 0.000625
-0.03 0.00866025403784439 0.000625
-0.0275 0.00866025403784439 0.000625
-0.025 0.00866025403784439 0.000625
-0.0225 0.00866025403784439 0.000625
-0.02 0.00866025403784439 0.000625
-0.0175 0.00866025403784439 0.000625
-0.015 0.00866025403784439 0.000625
-0.0125 0.00866025403784439 0.000625
-0.01 0.00866025403784439 0.000625
-0.0075 0.00866025403784439 0.000625
-0.005 0.00866025403784439 0.000625
-0.0025 0.00866025403784439 0.000625
0 0.00866025403784439 0.000625
0.0025 0.00866025403784439 0.000625
0.005 0.00866025403784439 0.000625
0.0075 0.00866025403784439 0.000625
0.01 0.00866025403784439 0.000625
0.0125 0.00866025403784439 0.000625
0.015 0.00866025403784439 0.000625
0.0175 0.00866025403784439 0.000625
0.02 0.00866025403784439 0.000625
0.0225 0.00866025403784439 0.000625
0.025 0.00866025403784439 0.000625
0.0275 0.00866025403784439 0.000625
0.03 0.00866025403784439 0.000625
0.0325 0.00866025403784439 0.000625
0.035 0.00866025403784439 0.000625

# calibration marks at y = 0.0108253 m
-0.03625 0.0108253175473055 0.000625
-0.03375 0.0108253175473055 0.000625
-0.03125 0.0108253175473055 0.000625
-0.02875 0.0108253175473055 0.000625
-0.02625 0.0108253175473055 0.000625
-0.02375 0.0108253175473055 0.000625
-0.02125 0.0108253175473055 0.000625
-0.01875 0.0108253175473055 0.000625
-0.01625 0.0108253175473055 0.000625
-0.01375 0.0108253175473055 0.000625
-0.01125 0.0108253175473055 0.000625
-0.00875 0.0108253175473055 0.000625
-0.00625 0.0108253175473055 0.000625
-0.00375 0.0108253175473055 0.000625
-0.00125 0.0108253175473055 0.000625
0.00125 0.0108253175473055 0.000625
0.00375 0.0108253175473055 0.000625
0.00625 0.0108253175473055 0.000625
0.00875 0.0108253175473055 0.000625
0.01125 0.0108253175473055 0.000625
0.01375 0.0108253175473055 0.000625
0.01625 0.0108253175473055 0.000625
0.01875 0.0108253175473055 0.000625
0.02125 0.0108253175473055 0.000625
0.02375 0.0108253175473055 0.000625
0.02625 0.0108253175473055 0.000625
0.02875 0.0108253175473055 0.000625
0.03125 0.0108253175473055 0.000625
0.03375 0.0108253175473055 0.000625
0.03625 0.0108253175473055 0.000625

# calibration marks at y = 0.0129904 m
-0.0375 0.0129903810567666 0.000625
-0.035 0.0129903810567666 0.000625
-0.0325 0.0129903810567666 0.000625
-0.03 0.0129903810567666 0.000625
-0.0275 0.0129903810567666 0.000625
-0.025 0.0129903810567666 0.000625
-0.0225 0.0129903810567666 0.000625
-0.02 0.0129903810567666 0.000625
-0.0175 0.0129903810567666 0.000625
-0.015 0.0129903810567666 0.000625
-0.0125 0.0129903810567666 0.000625
-0.01 0.0129903810567666 0.000625
-0.0075 0.0129903810567666 0.000625
-0.005 0.0129903810567666 0.000625
-0.0025 0.0129903810567666 0.000625
0 0.0129903810567666 0.000625
0.0025 0.0129903810567666 0.000625
0.005 0.0129903810567666 0.000625
0.0075 0.0129903810567666 0.000625
0.01 0.0129903810567666 0.000625
0.0125 0.0129903810567666 0.000625
0.015 0.0129903810567666 0.000625
0.0175 0.0129903810567666 0.000625
0.02 0.0129903810567666 0.000625
0.0225 0.0129903810567666 0.000625
0.025 0.0129903810567666 0.000625
0.0275 0.0129903810567666 0.000625
0.03 0.0129903810567666 0.000625
0.0325 0.0129903810567666 0.000625
0.035 0.0129903810567666 0.000625

# calibration marks at y = 0.0151554 m
-0.03625 0.0151554445662277 0.000625
-0.03375 0.0151554445662277 0.000625
-0.03125 0.0151554445662277 0.000625
-0.02875 0.0151554445662277 0.000625
-0.02625 0.0151554445662277 0.000625
-0.02375 0.0151554445662277 0.000625
-0.02125 0.0151554445662277 0.000625
-0.01875 0.0151554445662277 0.000625
-0.01625 0.0151554445662277 0.000625
-0.01375 0.0151554445662277 0.000625
-0.01125 0.0151554445662277 0.000625
-0.00875 0.0151554445662277 0.000625
-0.00625 0.0151554445662277 0.000625
-0.00375 0.0151554445662277 0.000625
-0.00125 0.0151554445662277 0.000625
0.00125 0.0151554445662277 0.000625
0.00375 0.0151554445662277 0.000625
0.00625 0.0151554445662277 0.000625
0.00875 0.0151554445662277 0.000625
0.01125 0.0151554445662277 0.000625
0.01375 0.0151554445662277 0.000625
0.01625 0.0151554445662277 0.000625
0.01875 0.0151554445662277 0.000625
0.02125 0.0151554445662277 0.000625
0.02375 0.0151554445662277 0.000625
0.02625 0.0151554445662277 0.000625
0.02875 0.0151554445662277 0.000625
0.03125 0.0151554445662277 0.000625
0.03375 0.0151554445662277 0.000625
0.03625 0.0151554445662277 0.000625

# calibration marks at y = 0.0173205 m
-0.0375 0.0173205080756888 0.000625
-0.035 0.0173205080756888 0.000625
-0.0325 0.0173205080756888 0.000625
-0.03 0.0173205080756888 0.000625
-0.0275 0.0173205080756888 0.000625
-0.025 0.0173205080756888 0.000625
-0.0225 0.0173205080756888 0.000625
-0.02 0.0173205080756888 0.000625
-0.0175 0.0173205080756888 0.000625
-0.015 0.0173205080756888 0.000625
-0.0125 0.0173205080756888 0.000625
-0.01 0.0173205080756888 0.000625
-0.0075 0.0173205080756888 0.000625
-0.005 0.0173205080756888 0.000625
-0.0025 0.0173205080756888 0.000625
0 0.0173205080756888 0.000625
0.0025 0.0173205080756888 0.000625
0.005 0.0173205080756888 0.000625
0.0075 0.0173205080756888 0.000625
0.01 0.0173205080756888 0.000625
0.0125 0.0173205080756888 0.000625
0.015 0.0173205080756888 0.000625
0.0175 0.0173205080756888 0.000625
0.02 0.0173205080756888 0.000625
0.0225 0.0173205080756888 0.000625
0.025 0.0173205080756888 0.000625
0.0275 0.0173205080756888 0.000625
0.03 0.0173205080756888 0.000625
0.0325 0.0173205080756888 0.000625
0.035 0.0173205080756888 0.000625

# calibration marks at y = 0.0194856 m
-0.03625 0.0194855715851499 0.000625
-0.03375 0.0194855715851499 0.000625
-0.03125 0.0194855715851499 0.000625
-0.02875 0.0194855715851499 0.000625
-0.02625 0.0194855715851499 0.000625
-0.02375 0.0194855715851499 0.000625
-0.02125 0.0194855715851499 0.000625
-0.01875 0.0194855715851499 0.000625
-0.01625 0.0194855715851499 0.000625
-0.01375 0.0194855715851499 0.000625
-0.01125 0.0194855715851499 0.000625
-0.00875 0.0194855715851499 0.000625
-0.00625 0.0194855715851499 0.000625
-0.00375 0.0194855715851499 0.000625
-0.00125 0.0194855715851499 0.000625
0.00125 0.0194855715851499 0.000625
0.00375 0.0194855715851499 0.000625
0.00625 0.0194855715851499 0.000625
0.00875 0.0194855715851499 0.000625
0.01125 0.0194855715851499 0.000625
0.01375 0.0194855715851499 0.000625
0.01625 0.0194855715851499 0.000625
0.01875 0.0194855715851499 0.000625
0.02125 0.0194855715851499 0.000625
0.02375 0.0194855715851499 0.000625
0.02625 0.0194855715851499 0.000625
0.02875 0.0194855715851499 0.000625
0.03125 0.0194855715851499 0.000625
0.03375 0.0194855715851499 0.000625
0.03625 0.0194855715851499 0.000625

# calibration marks at y = 0.0216506 m
-0.0375 0.021650635094611 0.000625
-0.035 0.021650635094611 0.000625
-0.0325 0.021650635094611 0.000625
-0.03 0.021650635094611 0.000625
-0.0275 0.021650635094611 0.000625
-0.025 0.021650635094611 0.000625
-0.0225 0.021650635094611 0.000625
-0.02 0.021650635094611 0.000625
-0.0175 0.021650635094611 0.000625
-0.015 0.021650635094611 0.000625
-0.0125 0.021650635094611 0.000625
-0.01 0.021650635094611 0.000625
-0.0075 0.021650635094611 0.000625
-0.005 0.021650635094611 0.000625
-0.0025 0.021650635094611 0.000625
0 0.021650635094611 0.000625
0.0025 0.021650635094611 0.000625
0.005 0.021650635094611 0.000625
0.0075 0.021650635094611 0.000625
0.01 0.021650635094611 0.000625
0.0125 0.021650635094611 0.000625
0.015 0.021650635094611 0.000625
0.0175 0.021650635094611 0.000625
0.02 0.021650635094611 0.000625
0.0225 0.021650635094611 0.000625
0.025 0.021650635094611 0.000625
0.0275 0.021650635094611 0.000625
0.03 0.021650635094611 0.000625
0.0325 0.021650635094611 0.000625
0.035 0.021650635094611 0.000625

# calibration marks at y = 0.0238157 m
-0.03625 0.0238156986040721 0.000625
-0.03375 0.0238156986040721 0.000625
-0.03125 0.0238156986040721 0.000625
-0.02875 0.0238156986040721 0.000625
-0.02625 0.0238156986040721 0.000625
-0.02375 0.0238156986040721 0.000625
-0.02125 0.0238156986040721 0.000625
-0.01875 0.0238156986040721 0.000625
-0.01625 0.0238156986040721 0.000625
-0.01375 0.0238156986040721 0.000625
-0.01125 0.0238156986040721 0.000625
-0.00875 0.0238156986040721 0.000625
-0.00625 0.0238156986040721 0.000625
-0.00375 0.0238156986040721 0.000625
-0.00125 0.0238156986040721 0.000625
0.00125 0.0238156986040721 0.000625
0.00375 0.0238156986040721 0.000625
0.00625 0.0238156986040721 0.000625
0.00875 0.0238156986040721 0.000625
0.01125 0.0238156986040721 0.000625
0.01375 0.0238156986040721 0.000625
0.01625 0.0238156986040721 0.000625
0.01875 0.0238156986040721 0.000625
0.02125 0.0238156986040721 0.000625
0.02375 0.0238156986040721 0.000625
0.02625 0.0238156986040721 0.000625
0.02875 0.0238156986040721 0.000625
0.03125 0.0238156986040721 0.000625
0.03375 0.0238156986040721 0.000625
0.03625 0.0238156986040721 0.000625

# calibration marks at y = 0.0259808 m
-0.0375 0.0259807621135332 0.000625
-0.035 0.0259807621135332 0.000625
-0.0325 0.0259807621135332 0.000625
-0.03 0.0259807621135332 0.000625
-0.0275 0.0259807621135332 0.000625
-0.025 0.0259807621135332 0.000625
-0.0225 0.0259807621135332 0.000625
-0.02 0.0259807621135332 0.000625
-0.0175 0.0259807621135332 0.000625
-0.015 0.0259807621135332 0.000625
-0.0125 0.0259807621135332 0.000625
-0.01 0.0259807621135332 0.000625
-0.0075 0.0259807621135332 0.000625
-0.005 0.0259807621135332 0.000625
-0.0025 0.0259807621135332 0.000625
0 0.0259807621135332 0.000625
0.0025 0.0259807621135332 0.000625
0.005 0.0259807621135332 0.000625
0.0075 0.0259807621135332 0.000625
0.01 0.0259807621135332 0.000625
0.0125 0.0259807621135332 0.000625
0.015 0.0259807621135332 0.000625
0.0175 0.0259807621135332 0.000625
0.02 0.0259807621135332 0.000625
0.0225 0.0259807621135332 0.000625
0.025 0.0259807621135332 0.000625
0.0275 0.0259807621135332 0.000625
0.03 0.0259807621135332 0.000625
0.0325 0.0259807621135332 0.000625
0.035 0.0259807621135332 0.000625
