# Plate Description Version 3
# HALCON Version 22.11 --  Wed Jun 14 11:26:45 2023
# Description of the standard calibration plate
# used for the camera calibration in HALCON
# (generated by create_caltab)
#
#

# 27 rows x 31 columns
# Width, height of calibration plate [meter]: 0.099, 0.07505
# Distance between mark centers [meter]: 0.003

# Number of marks in y-dimension (rows)
r 27

# Number of marks in x-dimension (columns)
c 31

# offset of coordinate system in z-dimension [meter] (optional):
z 0

# rim of the calibration plate (min x, max y, max x, min y) [meter]:
o -0.04875 0.0375249907475931 0.05025 -0.0375249907475931

# polarity of the marks (light or dark):
p light

# number of finder pattern marks:
f 5

# position of the finder patterns (central mark):  x y [index]
15 13
6 6
24 6
6 20
24 20

# calibration marks:  x y radius [meter]

# calibration marks at y = -0.033775 m
-0.0435 -0.0337749907475931 0.00075
-0.0405 -0.0337749907475931 0.00075
-0.0375 -0.0337749907475931 0.00075
-0.0345 -0.0337749907475931 0.00075
-0.0315 -0.0337749907475931 0.00075
-0.0285 -0.0337749907475931 0.00075
-0.0255 -0.0337749907475931 0.00075
-0.0225 -0.0337749907475931 0.00075
-0.0195 -0.0337749907475931 0.00075
-0.0165 -0.0337749907475931 0.00075
-0.0135 -0.0337749907475931 0.00075
-0.0105 -0.0337749907475931 0.00075
-0.0075 -0.0337749907475931 0.00075
-0.0045 -0.0337749907475931 0.00075
-0.0015 -0.0337749907475931 0.00075
0.0015 -0.0337749907475931 0.00075
0.0045 -0.0337749907475931 0.00075
0.0075 -0.0337749907475931 0.00075
0.0105 -0.0337749907475931 0.00075
0.0135 -0.0337749907475931 0.00075
0.0165 -0.0337749907475931 0.00075
0.0195 -0.0337749907475931 0.00075
0.0225 -0.0337749907475931 0.00075
0.0255 -0.0337749907475931 0.00075
0.0285 -0.0337749907475931 0.00075
0.0315 -0.0337749907475931 0.00075
0.0345 -0.0337749907475931 0.00075
0.0375 -0.0337749907475931 0.00075
0.0405 -0.0337749907475931 0.00075
0.0435 -0.0337749907475931 0.00075
0.0465 -0.0337749907475931 0.00075

# calibration marks at y = -0.0311769 m
-0.045 -0.0311769145362398 0.00075
-0.042 -0.0311769145362398 0.00075
-0.039 -0.0311769145362398 0.00075
-0.036 -0.0311769145362398 0.00075
-0.033 -0.0311769145362398 0.00075
-0.03 -0.0311769145362398 0.00075
-0.027 -0.0311769145362398 0.00075
-0.024 -0.0311769145362398 0.00075
-0.021 -0.0311769145362398 0.00075
-0.018 -0.0311769145362398 0.00075
-0.015 -0.0311769145362398 0.00075
-0.012 -0.0311769145362398 0.00075
-0.009 -0.0311769145362398 0.00075
-0.006 -0.0311769145362398 0.00075
-0.003 -0.0311769145362398 0.00075
0 -0.0311769145362398 0.00075
0.003 -0.0311769145362398 0.00075
0.006 -0.0311769145362398 0.00075
0.009 -0.0311769145362398 0.00075
0.012 -0.0311769145362398 0.00075
0.015 -0.0311769145362398 0.00075
0.018 -0.0311769145362398 0.00075
0.021 -0.0311769145362398 0.00075
0.024 -0.0311769145362398 0.00075
0.027 -0.0311769145362398 0.00075
0.03 -0.0311769145362398 0.00075
0.033 -0.0311769145362398 0.00075
0.036 -0.0311769145362398 0.00075
0.039 -0.0311769145362398 0.00075
0.042 -0.0311769145362398 0.00075
0.045 -0.0311769145362398 0.00075

# calibration marks at y = -0.0285788 m
-0.0435 -0.0285788383248865 0.00075
-0.0405 -0.0285788383248865 0.00075
-0.0375 -0.0285788383248865 0.00075
-0.0345 -0.0285788383248865 0.00075
-0.0315 -0.0285788383248865 0.00075
-0.0285 -0.0285788383248865 0.00075
-0.0255 -0.0285788383248865 0.00075
-0.0225 -0.0285788383248865 0.00075
-0.0195 -0.0285788383248865 0.00075
-0.0165 -0.0285788383248865 0.00075
-0.0135 -0.0285788383248865 0.00075
-0.0105 -0.0285788383248865 0.00075
-0.0075 -0.0285788383248865 0.00075
-0.0045 -0.0285788383248865 0.00075
-0.0015 -0.0285788383248865 0.00075
0.0015 -0.0285788383248865 0.00075
0.0045 -0.0285788383248865 0.00075
0.0075 -0.0285788383248865 0.00075
0.0105 -0.0285788383248865 0.00075
0.0135 -0.0285788383248865 0.00075
0.0165 -0.0285788383248865 0.00075
0.0195 -0.0285788383248865 0.00075
0.0225 -0.0285788383248865 0.00075
0.0255 -0.0285788383248865 0.00075
0.0285 -0.0285788383248865 0.00075
0.0315 -0.0285788383248865 0.00075
0.0345 -0.0285788383248865 0.00075
0.0375 -0.0285788383248865 0.00075
0.0405 -0.0285788383248865 0.00075
0.0435 -0.0285788383248865 0.00075
0.0465 -0.0285788383248865 0.00075

# calibration marks at y = -0.0259808 m
-0.045 -0.0259807621135332 0.00075
-0.042 -0.0259807621135332 0.00075
-0.039 -0.0259807621135332 0.00075
-0.036 -0.0259807621135332 0.00075
-0.033 -0.0259807621135332 0.00075
-0.03 -0.0259807621135332 0.00075
-0.027 -0.0259807621135332 0.00075
-0.024 -0.0259807621135332 0.00075
-0.021 -0.0259807621135332 0.00075
-0.018 -0.0259807621135332 0.00075
-0.015 -0.0259807621135332 0.00075
-0.012 -0.0259807621135332 0.00075
-0.009 -0.0259807621135332 0.00075
-0.006 -0.0259807621135332 0.00075
-0.003 -0.0259807621135332 0.00075
0 -0.0259807621135332 0.00075
0.003 -0.0259807621135332 0.00075
0.006 -0.0259807621135332 0.00075
0.009 -0.0259807621135332 0.00075
0.012 -0.0259807621135332 0.00075
0.015 -0.0259807621135332 0.00075
0.018 -0.0259807621135332 0.00075
0.021 -0.0259807621135332 0.00075
0.024 -0.0259807621135332 0.00075
0.027 -0.0259807621135332 0.00075
0.03 -0.0259807621135332 0.00075
0.033 -0.0259807621135332 0.00075
0.036 -0.0259807621135332 0.00075
0.039 -0.0259807621135332 0.00075
0.042 -0.0259807621135332 0.00075
0.045 -0.0259807621135332 0.00075

# calibration marks at y = -0.0233827 m
-0.0435 -0.0233826859021798 0.00075
-0.0405 -0.0233826859021798 0.00075
-0.0375 -0.0233826859021798 0.00075
-0.0345 -0.0233826859021798 0.00075
-0.0315 -0.0233826859021798 0.00075
-0.0285 -0.0233826859021798 0.00075
-0.0255 -0.0233826859021798 0.00075
-0.0225 -0.0233826859021798 0.00075
-0.0195 -0.0233826859021798 0.00075
-0.0165 -0.0233826859021798 0.00075
-0.0135 -0.0233826859021798 0.00075
-0.0105 -0.0233826859021798 0.00075
-0.0075 -0.0233826859021798 0.00075
-0.0045 -0.0233826859021798 0.00075
-0.0015 -0.0233826859021798 0.00075
0.0015 -0.0233826859021798 0.00075
0.0045 -0.0233826859021798 0.00075
0.0075 -0.0233826859021798 0.00075
0.0105 -0.0233826859021798 0.00075
0.0135 -0.0233826859021798 0.00075
0.0165 -0.0233826859021798 0.00075
0.0195 -0.0233826859021798 0.00075
0.0225 -0.0233826859021798 0.00075
0.0255 -0.0233826859021798 0.00075
0.0285 -0.0233826859021798 0.00075
0.0315 -0.0233826859021798 0.00075
0.0345 -0.0233826859021798 0.00075
0.0375 -0.0233826859021798 0.00075
0.0405 -0.0233826859021798 0.00075
0.0435 -0.0233826859021798 0.00075
0.0465 -0.0233826859021798 0.00075

# calibration marks at y = -0.0207846 m
-0.045 -0.0207846096908265 0.00075
-0.042 -0.0207846096908265 0.00075
-0.039 -0.0207846096908265 0.00075
-0.036 -0.0207846096908265 0.00075
-0.033 -0.0207846096908265 0.00075
-0.03 -0.0207846096908265 0.00075
-0.027 -0.0207846096908265 0.00075
-0.024 -0.0207846096908265 0.00075
-0.021 -0.0207846096908265 0.00075
-0.018 -0.0207846096908265 0.00075
-0.015 -0.0207846096908265 0.00075
-0.012 -0.0207846096908265 0.00075
-0.009 -0.0207846096908265 0.00075
-0.006 -0.0207846096908265 0.00075
-0.003 -0.0207846096908265 0.00075
0 -0.0207846096908265 0.00075
0.003 -0.0207846096908265 0.00075
0.006 -0.0207846096908265 0.00075
0.009 -0.0207846096908265 0.00075
0.012 -0.0207846096908265 0.00075
0.015 -0.0207846096908265 0.00075
0.018 -0.0207846096908265 0.00075
0.021 -0.0207846096908265 0.00075
0.024 -0.0207846096908265 0.00075
0.027 -0.0207846096908265 0.00075
0.03 -0.0207846096908265 0.00075
0.033 -0.0207846096908265 0.00075
0.036 -0.0207846096908265 0.00075
0.039 -0.0207846096908265 0.00075
0.042 -0.0207846096908265 0.00075
0.045 -0.0207846096908265 0.00075

# calibration marks at y = -0.0181865 m
-0.0435 -0.0181865334794732 0.00075
-0.0405 -0.0181865334794732 0.00075
-0.0375 -0.0181865334794732 0.00075
-0.0345 -0.0181865334794732 0.00075
-0.0315 -0.0181865334794732 0.00075
-0.0285 -0.0181865334794732 0.00075
-0.0255 -0.0181865334794732 0.00075
-0.0225 -0.0181865334794732 0.00075
-0.0195 -0.0181865334794732 0.00075
-0.0165 -0.0181865334794732 0.00075
-0.0135 -0.0181865334794732 0.00075
-0.0105 -0.0181865334794732 0.00075
-0.0075 -0.0181865334794732 0.00075
-0.0045 -0.0181865334794732 0.00075
-0.0015 -0.0181865334794732 0.00075
0.0015 -0.0181865334794732 0.00075
0.0045 -0.0181865334794732 0.00075
0.0075 -0.0181865334794732 0.00075
0.0105 -0.0181865334794732 0.00075
0.0135 -0.0181865334794732 0.00075
0.0165 -0.0181865334794732 0.00075
0.0195 -0.0181865334794732 0.00075
0.0225 -0.0181865334794732 0.00075
0.0255 -0.0181865334794732 0.00075
0.0285 -0.0181865334794732 0.00075
0.0315 -0.0181865334794732 0.00075
0.0345 -0.0181865334794732 0.00075
0.0375 -0.0181865334794732 0.00075
0.0405 -0.0181865334794732 0.00075
0.0435 -0.0181865334794732 0.00075
0.0465 -0.0181865334794732 0.00075

# calibration marks at y = -0.0155885 m
-0.045 -0.0155884572681199 0.00075
-0.042 -0.0155884572681199 0.00075
-0.039 -0.0155884572681199 0.00075
-0.036 -0.0155884572681199 0.00075
-0.033 -0.0155884572681199 0.00075
-0.03 -0.0155884572681199 0.00075
-0.027 -0.0155884572681199 0.00075
-0.024 -0.0155884572681199 0.00075
-0.021 -0.0155884572681199 0.00075
-0.018 -0.0155884572681199 0.00075
-0.015 -0.0155884572681199 0.00075
-0.012 -0.0155884572681199 0.00075
-0.009 -0.0155884572681199 0.00075
-0.006 -0.0155884572681199 0.00075
-0.003 -0.0155884572681199 0.00075
0 -0.0155884572681199 0.00075
0.003 -0.0155884572681199 0.00075
0.006 -0.0155884572681199 0.00075
0.009 -0.0155884572681199 0.00075
0.012 -0.0155884572681199 0.00075
0.015 -0.0155884572681199 0.00075
0.018 -0.0155884572681199 0.00075
0.021 -0.0155884572681199 0.00075
0.024 -0.0155884572681199 0.00075
0.027 -0.0155884572681199 0.00075
0.03 -0.0155884572681199 0.00075
0.033 -0.0155884572681199 0.00075
0.036 -0.0155884572681199 0.00075
0.039 -0.0155884572681199 0.00075
0.042 -0.0155884572681199 0.00075
0.045 -0.0155884572681199 0.00075

# calibration marks at y = -0.0129904 m
-0.0435 -0.0129903810567666 0.00075
-0.0405 -0.0129903810567666 0.00075
-0.0375 -0.0129903810567666 0.00075
-0.0345 -0.0129903810567666 0.00075
-0.0315 -0.0129903810567666 0.00075
-0.0285 -0.0129903810567666 0.00075
-0.0255 -0.0129903810567666 0.00075
-0.0225 -0.0129903810567666 0.00075
-0.0195 -0.0129903810567666 0.00075
-0.0165 -0.0129903810567666 0.00075
-0.0135 -0.0129903810567666 0.00075
-0.0105 -0.0129903810567666 0.00075
-0.0075 -0.0129903810567666 0.00075
-0.0045 -0.0129903810567666 0.00075
-0.0015 -0.0129903810567666 0.00075
0.0015 -0.0129903810567666 0.00075
0.0045 -0.0129903810567666 0.00075
0.0075 -0.0129903810567666 0.00075
0.0105 -0.0129903810567666 0.00075
0.0135 -0.0129903810567666 0.00075
0.0165 -0.0129903810567666 0.00075
0.0195 -0.0129903810567666 0.00075
0.0225 -0.0129903810567666 0.00075
0.0255 -0.0129903810567666 0.00075
0.0285 -0.0129903810567666 0.00075
0.0315 -0.0129903810567666 0.00075
0.0345 -0.0129903810567666 0.00075
0.0375 -0.0129903810567666 0.00075
0.0405 -0.0129903810567666 0.00075
0.0435 -0.0129903810567666 0.00075
0.0465 -0.0129903810567666 0.00075

# calibration marks at y = -0.0103923 m
-0.045 -0.0103923048454133 0.00075
-0.042 -0.0103923048454133 0.00075
-0.039 -0.0103923048454133 0.00075
-0.036 -0.0103923048454133 0.00075
-0.033 -0.0103923048454133 0.00075
-0.03 -0.0103923048454133 0.00075
-0.027 -0.0103923048454133 0.00075
-0.024 -0.0103923048454133 0.00075
-0.021 -0.0103923048454133 0.00075
-0.018 -0.0103923048454133 0.00075
-0.015 -0.0103923048454133 0.00075
-0.012 -0.0103923048454133 0.00075
-0.009 -0.0103923048454133 0.00075
-0.006 -0.0103923048454133 0.00075
-0.003 -0.0103923048454133 0.00075
0 -0.0103923048454133 0.00075
0.003 -0.0103923048454133 0.00075
0.006 -0.0103923048454133 0.00075
0.009 -0.0103923048454133 0.00075
0.012 -0.0103923048454133 0.00075
0.015 -0.0103923048454133 0.00075
0.018 -0.0103923048454133 0.00075
0.021 -0.0103923048454133 0.00075
0.024 -0.0103923048454133 0.00075
0.027 -0.0103923048454133 0.00075
0.03 -0.0103923048454133 0.00075
0.033 -0.0103923048454133 0.00075
0.036 -0.0103923048454133 0.00075
0.039 -0.0103923048454133 0.00075
0.042 -0.0103923048454133 0.00075
0.045 -0.0103923048454133 0.00075

# calibration marks at y = -0.00779423 m
-0.0435 -0.00779422863405995 0.00075
-0.0405 -0.00779422863405995 0.00075
-0.0375 -0.00779422863405995 0.00075
-0.0345 -0.00779422863405995 0.00075
-0.0315 -0.00779422863405995 0.00075
-0.0285 -0.00779422863405995 0.00075
-0.0255 -0.00779422863405995 0.00075
-0.0225 -0.00779422863405995 0.00075
-0.0195 -0.00779422863405995 0.00075
-0.0165 -0.00779422863405995 0.00075
-0.0135 -0.00779422863405995 0.00075
-0.0105 -0.00779422863405995 0.00075
-0.0075 -0.00779422863405995 0.00075
-0.0045 -0.00779422863405995 0.00075
-0.0015 -0.00779422863405995 0.00075
0.0015 -0.00779422863405995 0.00075
0.0045 -0.00779422863405995 0.00075
0.0075 -0.00779422863405995 0.00075
0.0105 -0.00779422863405995 0.00075
0.0135 -0.00779422863405995 0.00075
0.0165 -0.00779422863405995 0.00075
0.0195 -0.00779422863405995 0.00075
0.0225 -0.00779422863405995 0.00075
0.0255 -0.00779422863405995 0.00075
0.0285 -0.00779422863405995 0.00075
0.0315 -0.00779422863405995 0.00075
0.0345 -0.00779422863405995 0.00075
0.0375 -0.00779422863405995 0.00075
0.0405 -0.00779422863405995 0.00075
0.0435 -0.00779422863405995 0.00075
0.0465 -0.00779422863405995 0.00075

# calibration marks at y = -0.00519615 m
-0.045 -0.00519615242270663 0.00075
-0.042 -0.00519615242270663 0.00075
-0.039 -0.00519615242270663 0.00075
-0.036 -0.00519615242270663 0.00075
-0.033 -0.00519615242270663 0.00075
-0.03 -0.00519615242270663 0.00075
-0.027 -0.00519615242270663 0.00075
-0.024 -0.00519615242270663 0.00075
-0.021 -0.00519615242270663 0.00075
-0.018 -0.00519615242270663 0.00075
-0.015 -0.00519615242270663 0.00075
-0.012 -0.00519615242270663 0.00075
-0.009 -0.00519615242270663 0.00075
-0.006 -0.00519615242270663 0.00075
-0.003 -0.00519615242270663 0.00075
0 -0.00519615242270663 0.00075
0.003 -0.00519615242270663 0.00075
0.006 -0.00519615242270663 0.00075
0.009 -0.00519615242270663 0.00075
0.012 -0.00519615242270663 0.00075
0.015 -0.00519615242270663 0.00075
0.018 -0.00519615242270663 0.00075
0.021 -0.00519615242270663 0.00075
0.024 -0.00519615242270663 0.00075
0.027 -0.00519615242270663 0.00075
0.03 -0.00519615242270663 0.00075
0.033 -0.00519615242270663 0.00075
0.036 -0.00519615242270663 0.00075
0.039 -0.00519615242270663 0.00075
0.042 -0.00519615242270663 0.00075
0.045 -0.00519615242270663 0.00075

# calibration marks at y = -0.00259808 m
-0.0435 -0.00259807621135332 0.00075
-0.0405 -0.00259807621135332 0.00075
-0.0375 -0.00259807621135332 0.00075
-0.0345 -0.00259807621135332 0.00075
-0.0315 -0.00259807621135332 0.00075
-0.0285 -0.00259807621135332 0.00075
-0.0255 -0.00259807621135332 0.00075
-0.0225 -0.00259807621135332 0.00075
-0.0195 -0.00259807621135332 0.00075
-0.0165 -0.00259807621135332 0.00075
-0.0135 -0.00259807621135332 0.00075
-0.0105 -0.00259807621135332 0.00075
-0.0075 -0.00259807621135332 0.00075
-0.0045 -0.00259807621135332 0.00075
-0.0015 -0.00259807621135332 0.00075
0.0015 -0.00259807621135332 0.00075
0.0045 -0.00259807621135332 0.00075
0.0075 -0.00259807621135332 0.00075
0.0105 -0.00259807621135332 0.00075
0.0135 -0.00259807621135332 0.00075
0.0165 -0.00259807621135332 0.00075
0.0195 -0.00259807621135332 0.00075
0.0225 -0.00259807621135332 0.00075
0.0255 -0.00259807621135332 0.00075
0.0285 -0.00259807621135332 0.00075
0.0315 -0.00259807621135332 0.00075
0.0345 -0.00259807621135332 0.00075
0.0375 -0.00259807621135332 0.00075
0.0405 -0.00259807621135332 0.00075
0.0435 -0.00259807621135332 0.00075
0.0465 -0.00259807621135332 0.00075

# calibration marks at y = 0 m
-0.045 0 0.00075
-0.042 0 0.00075
-0.039 0 0.00075
-0.036 0 0.00075
-0.033 0 0.00075
-0.03 0 0.00075
-0.027 0 0.00075
-0.024 0 0.00075
-0.021 0 0.00075
-0.018 0 0.00075
-0.015 0 0.00075
-0.012 0 0.00075
-0.009 0 0.00075
-0.006 0 0.00075
-0.003 0 0.00075
0 0 0.00075
0.003 0 0.00075
0.006 0 0.00075
0.009 0 0.00075
0.012 0 0.00075
0.015 0 0.00075
0.018 0 0.00075
0.021 0 0.00075
0.024 0 0.00075
0.027 0 0.00075
0.03 0 0.00075
0.033 0 0.00075
0.036 0 0.00075
0.039 0 0.00075
0.042 0 0.00075
0.045 0 0.00075

# calibration marks at y = 0.00259808 m
-0.0435 0.00259807621135332 0.00075
-0.0405 0.00259807621135332 0.00075
-0.0375 0.00259807621135332 0.00075
-0.0345 0.00259807621135332 0.00075
-0.0315 0.00259807621135332 0.00075
-0.0285 0.00259807621135332 0.00075
-0.0255 0.00259807621135332 0.00075
-0.0225 0.00259807621135332 0.00075
-0.0195 0.00259807621135332 0.00075
-0.0165 0.00259807621135332 0.00075
-0.0135 0.00259807621135332 0.00075
-0.0105 0.00259807621135332 0.00075
-0.0075 0.00259807621135332 0.00075
-0.0045 0.00259807621135332 0.00075
-0.0015 0.00259807621135332 0.00075
0.0015 0.00259807621135332 0.00075
0.0045 0.00259807621135332 0.00075
0.0075 0.00259807621135332 0.00075
0.0105 0.00259807621135332 0.00075
0.0135 0.00259807621135332 0.00075
0.0165 0.00259807621135332 0.00075
0.0195 0.00259807621135332 0.00075
0.0225 0.00259807621135332 0.00075
0.0255 0.00259807621135332 0.00075
0.0285 0.00259807621135332 0.00075
0.0315 0.00259807621135332 0.00075
0.0345 0.00259807621135332 0.00075
0.0375 0.00259807621135332 0.00075
0.0405 0.00259807621135332 0.00075
0.0435 0.00259807621135332 0.00075
0.0465 0.00259807621135332 0.00075

# calibration marks at y = 0.00519615 m
-0.045 0.00519615242270663 0.00075
-0.042 0.00519615242270663 0.00075
-0.039 0.00519615242270663 0.00075
-0.036 0.00519615242270663 0.00075
-0.033 0.00519615242270663 0.00075
-0.03 0.00519615242270663 0.00075
-0.027 0.00519615242270663 0.00075
-0.024 0.00519615242270663 0.00075
-0.021 0.00519615242270663 0.00075
-0.018 0.00519615242270663 0.00075
-0.015 0.00519615242270663 0.00075
-0.012 0.00519615242270663 0.00075
-0.009 0.00519615242270663 0.00075
-0.006 0.00519615242270663 0.00075
-0.003 0.00519615242270663 0.00075
0 0.00519615242270663 0.00075
0.003 0.00519615242270663 0.00075
0.006 0.00519615242270663 0.00075
0.009 0.00519615242270663 0.00075
0.012 0.00519615242270663 0.00075
0.015 0.00519615242270663 0.00075
0.018 0.00519615242270663 0.00075
0.021 0.00519615242270663 0.00075
0.024 0.00519615242270663 0.00075
0.027 0.00519615242270663 0.00075
0.03 0.00519615242270663 0.00075
0.033 0.00519615242270663 0.00075
0.036 0.00519615242270663 0.00075
0.039 0.00519615242270663 0.00075
0.042 0.00519615242270663 0.00075
0.045 0.00519615242270663 0.00075

# calibration marks at y = 0.00779423 m
-0.0435 0.00779422863405995 0.00075
-0.0405 0.00779422863405995 0.00075
-0.0375 0.00779422863405995 0.00075
-0.0345 0.00779422863405995 0.00075
-0.0315 0.00779422863405995 0.00075
-0.0285 0.00779422863405995 0.00075
-0.0255 0.00779422863405995 0.00075
-0.0225 0.00779422863405995 0.00075
-0.0195 0.00779422863405995 0.00075
-0.0165 0.00779422863405995 0.00075
-0.0135 0.00779422863405995 0.00075
-0.0105 0.00779422863405995 0.00075
-0.0075 0.00779422863405995 0.00075
-0.0045 0.00779422863405995 0.00075
-0.0015 0.00779422863405995 0.00075
0.0015 0.00779422863405995 0.00075
0.0045 0.00779422863405995 0.00075
0.0075 0.00779422863405995 0.00075
0.0105 0.00779422863405995 0.00075
0.0135 0.00779422863405995 0.00075
0.0165 0.00779422863405995 0.00075
0.0195 0.00779422863405995 0.00075
0.0225 0.00779422863405995 0.00075
0.0255 0.00779422863405995 0.00075
0.0285 0.00779422863405995 0.00075
0.0315 0.00779422863405995 0.00075
0.0345 0.00779422863405995 0.00075
0.0375 0.00779422863405995 0.00075
0.0405 0.00779422863405995 0.00075
0.0435 0.00779422863405995 0.00075
0.0465 0.00779422863405995 0.00075

# calibration marks at y = 0.0103923 m
-0.045 0.0103923048454133 0.00075
-0.042 0.0103923048454133 0.00075
-0.039 0.0103923048454133 0.00075
-0.036 0.0103923048454133 0.00075
-0.033 0.0103923048454133 0.00075
-0.03 0.0103923048454133 0.00075
-0.027 0.0103923048454133 0.00075
-0.024 0.0103923048454133 0.00075
-0.021 0.0103923048454133 0.00075
-0.018 0.0103923048454133 0.00075
-0.015 0.0103923048454133 0.00075
-0.012 0.0103923048454133 0.00075
-0.009 0.0103923048454133 0.00075
-0.006 0.0103923048454133 0.00075
-0.003 0.0103923048454133 0.00075
0 0.0103923048454133 0.00075
0.003 0.0103923048454133 0.00075
0.006 0.0103923048454133 0.00075
0.009 0.0103923048454133 0.00075
0.012 0.0103923048454133 0.00075
0.015 0.0103923048454133 0.00075
0.018 0.0103923048454133 0.00075
0.021 0.0103923048454133 0.00075
0.024 0.0103923048454133 0.00075
0.027 0.0103923048454133 0.00075
0.03 0.0103923048454133 0.00075
0.033 0.0103923048454133 0.00075
0.036 0.0103923048454133 0.00075
0.039 0.0103923048454133 0.00075
0.042 0.0103923048454133 0.00075
0.045 0.0103923048454133 0.00075

# calibration marks at y = 0.0129904 m
-0.0435 0.0129903810567666 0.00075
-0.0405 0.0129903810567666 0.00075
-0.0375 0.0129903810567666 0.00075
-0.0345 0.0129903810567666 0.00075
-0.0315 0.0129903810567666 0.00075
-0.0285 0.0129903810567666 0.00075
-0.0255 0.0129903810567666 0.00075
-0.0225 0.0129903810567666 0.00075
-0.0195 0.0129903810567666 0.00075
-0.0165 0.0129903810567666 0.00075
-0.0135 0.0129903810567666 0.00075
-0.0105 0.0129903810567666 0.00075
-0.0075 0.0129903810567666 0.00075
-0.0045 0.0129903810567666 0.00075
-0.0015 0.0129903810567666 0.00075
0.0015 0.0129903810567666 0.00075
0.0045 0.0129903810567666 0.00075
0.0075 0.0129903810567666 0.00075
0.0105 0.0129903810567666 0.00075
0.0135 0.0129903810567666 0.00075
0.0165 0.0129903810567666 0.00075
0.0195 0.0129903810567666 0.00075
0.0225 0.0129903810567666 0.00075
0.0255 0.0129903810567666 0.00075
0.0285 0.0129903810567666 0.00075
0.0315 0.0129903810567666 0.00075
0.0345 0.0129903810567666 0.00075
0.0375 0.0129903810567666 0.00075
0.0405 0.0129903810567666 0.00075
0.0435 0.0129903810567666 0.00075
0.0465 0.0129903810567666 0.00075

# calibration marks at y = 0.0155885 m
-0.045 0.0155884572681199 0.00075
-0.042 0.0155884572681199 0.00075
-0.039 0.0155884572681199 0.00075
-0.036 0.0155884572681199 0.00075
-0.033 0.0155884572681199 0.00075
-0.03 0.0155884572681199 0.00075
-0.027 0.0155884572681199 0.00075
-0.024 0.0155884572681199 0.00075
-0.021 0.0155884572681199 0.00075
-0.018 0.0155884572681199 0.00075
-0.015 0.0155884572681199 0.00075
-0.012 0.0155884572681199 0.00075
-0.009 0.0155884572681199 0.00075
-0.006 0.0155884572681199 0.00075
-0.003 0.0155884572681199 0.00075
0 0.0155884572681199 0.00075
0.003 0.0155884572681199 0.00075
0.006 0.0155884572681199 0.00075
0.009 0.0155884572681199 0.00075
0.012 0.0155884572681199 0.00075
0.015 0.0155884572681199 0.00075
0.018 0.0155884572681199 0.00075
0.021 0.0155884572681199 0.00075
0.024 0.0155884572681199 0.00075
0.027 0.0155884572681199 0.00075
0.03 0.0155884572681199 0.00075
0.033 0.0155884572681199 0.00075
0.036 0.0155884572681199 0.00075
0.039 0.0155884572681199 0.00075
0.042 0.0155884572681199 0.00075
0.045 0.0155884572681199 0.00075

# calibration marks at y = 0.0181865 m
-0.0435 0.0181865334794732 0.00075
-0.0405 0.0181865334794732 0.00075
-0.0375 0.0181865334794732 0.00075
-0.0345 0.0181865334794732 0.00075
-0.0315 0.0181865334794732 0.00075
-0.0285 0.0181865334794732 0.00075
-0.0255 0.0181865334794732 0.00075
-0.0225 0.0181865334794732 0.00075
-0.0195 0.0181865334794732 0.00075
-0.0165 0.0181865334794732 0.00075
-0.0135 0.0181865334794732 0.00075
-0.0105 0.0181865334794732 0.00075
-0.0075 0.0181865334794732 0.00075
-0.0045 0.0181865334794732 0.00075
-0.0015 0.0181865334794732 0.00075
0.0015 0.0181865334794732 0.00075
0.0045 0.0181865334794732 0.00075
0.0075 0.0181865334794732 0.00075
0.0105 0.0181865334794732 0.00075
0.0135 0.0181865334794732 0.00075
0.0165 0.0181865334794732 0.00075
0.0195 0.0181865334794732 0.00075
0.0225 0.0181865334794732 0.00075
0.0255 0.0181865334794732 0.00075
0.0285 0.0181865334794732 0.00075
0.0315 0.0181865334794732 0.00075
0.0345 0.0181865334794732 0.00075
0.0375 0.0181865334794732 0.00075
0.0405 0.0181865334794732 0.00075
0.0435 0.0181865334794732 0.00075
0.0465 0.0181865334794732 0.00075

# calibration marks at y = 0.0207846 m
-0.045 0.0207846096908265 0.00075
-0.042 0.0207846096908265 0.00075
-0.039 0.0207846096908265 0.00075
-0.036 0.0207846096908265 0.00075
-0.033 0.0207846096908265 0.00075
-0.03 0.0207846096908265 0.00075
-0.027 0.0207846096908265 0.00075
-0.024 0.0207846096908265 0.00075
-0.021 0.0207846096908265 0.00075
-0.018 0.0207846096908265 0.00075
-0.015 0.0207846096908265 0.00075
-0.012 0.0207846096908265 0.00075
-0.009 0.0207846096908265 0.00075
-0.006 0.0207846096908265 0.00075
-0.003 0.0207846096908265 0.00075
0 0.0207846096908265 0.00075
0.003 0.0207846096908265 0.00075
0.006 0.0207846096908265 0.00075
0.009 0.0207846096908265 0.00075
0.012 0.0207846096908265 0.00075
0.015 0.0207846096908265 0.00075
0.018 0.0207846096908265 0.00075
0.021 0.0207846096908265 0.00075
0.024 0.0207846096908265 0.00075
0.027 0.0207846096908265 0.00075
0.03 0.0207846096908265 0.00075
0.033 0.0207846096908265 0.00075
0.036 0.0207846096908265 0.00075
0.039 0.0207846096908265 0.00075
0.042 0.0207846096908265 0.00075
0.045 0.0207846096908265 0.00075

# calibration marks at y = 0.0233827 m
-0.0435 0.0233826859021798 0.00075
-0.0405 0.0233826859021798 0.00075
-0.0375 0.0233826859021798 0.00075
-0.0345 0.0233826859021798 0.00075
-0.0315 0.0233826859021798 0.00075
-0.0285 0.0233826859021798 0.00075
-0.0255 0.0233826859021798 0.00075
-0.0225 0.0233826859021798 0.00075
-0.0195 0.0233826859021798 0.00075
-0.0165 0.0233826859021798 0.00075
-0.0135 0.0233826859021798 0.00075
-0.0105 0.0233826859021798 0.00075
-0.0075 0.0233826859021798 0.00075
-0.0045 0.0233826859021798 0.00075
-0.0015 0.0233826859021798 0.00075
0.0015 0.0233826859021798 0.00075
0.0045 0.0233826859021798 0.00075
0.0075 0.0233826859021798 0.00075
0.0105 0.0233826859021798 0.00075
0.0135 0.0233826859021798 0.00075
0.0165 0.0233826859021798 0.00075
0.0195 0.0233826859021798 0.00075
0.0225 0.0233826859021798 0.00075
0.0255 0.0233826859021798 0.00075
0.0285 0.0233826859021798 0.00075
0.0315 0.0233826859021798 0.00075
0.0345 0.0233826859021798 0.00075
0.0375 0.0233826859021798 0.00075
0.0405 0.0233826859021798 0.00075
0.0435 0.0233826859021798 0.00075
0.0465 0.0233826859021798 0.00075

# calibration marks at y = 0.0259808 m
-0.045 0.0259807621135332 0.00075
-0.042 0.0259807621135332 0.00075
-0.039 0.0259807621135332 0.00075
-0.036 0.0259807621135332 0.00075
-0.033 0.0259807621135332 0.00075
-0.03 0.0259807621135332 0.00075
-0.027 0.0259807621135332 0.00075
-0.024 0.0259807621135332 0.00075
-0.021 0.0259807621135332 0.00075
-0.018 0.0259807621135332 0.00075
-0.015 0.0259807621135332 0.00075
-0.012 0.0259807621135332 0.00075
-0.009 0.0259807621135332 0.00075
-0.006 0.0259807621135332 0.00075
-0.003 0.0259807621135332 0.00075
0 0.0259807621135332 0.00075
0.003 0.0259807621135332 0.00075
0.006 0.0259807621135332 0.00075
0.009 0.0259807621135332 0.00075
0.012 0.0259807621135332 0.00075
0.015 0.0259807621135332 0.00075
0.018 0.0259807621135332 0.00075
0.021 0.0259807621135332 0.00075
0.024 0.0259807621135332 0.00075
0.027 0.0259807621135332 0.00075
0.03 0.0259807621135332 0.00075
0.033 0.0259807621135332 0.00075
0.036 0.0259807621135332 0.00075
0.039 0.0259807621135332 0.00075
0.042 0.0259807621135332 0.00075
0.045 0.0259807621135332 0.00075

# calibration marks at y = 0.0285788 m
-0.0435 0.0285788383248865 0.00075
-0.0405 0.0285788383248865 0.00075
-0.0375 0.0285788383248865 0.00075
-0.0345 0.0285788383248865 0.00075
-0.0315 0.0285788383248865 0.00075
-0.0285 0.0285788383248865 0.00075
-0.0255 0.0285788383248865 0.00075
-0.0225 0.0285788383248865 0.00075
-0.0195 0.0285788383248865 0.00075
-0.0165 0.0285788383248865 0.00075
-0.0135 0.0285788383248865 0.00075
-0.0105 0.0285788383248865 0.00075
-0.0075 0.0285788383248865 0.00075
-0.0045 0.0285788383248865 0.00075
-0.0015 0.0285788383248865 0.00075
0.0015 0.0285788383248865 0.00075
0.0045 0.0285788383248865 0.00075
0.0075 0.0285788383248865 0.00075
0.0105 0.0285788383248865 0.00075
0.0135 0.0285788383248865 0.00075
0.0165 0.0285788383248865 0.00075
0.0195 0.0285788383248865 0.00075
0.0225 0.0285788383248865 0.00075
0.0255 0.0285788383248865 0.00075
0.0285 0.0285788383248865 0.00075
0.0315 0.0285788383248865 0.00075
0.0345 0.0285788383248865 0.00075
0.0375 0.0285788383248865 0.00075
0.0405 0.0285788383248865 0.00075
0.0435 0.0285788383248865 0.00075
0.0465 0.0285788383248865 0.00075

# calibration marks at y = 0.0311769 m
-0.045 0.0311769145362398 0.00075
-0.042 0.0311769145362398 0.00075
-0.039 0.0311769145362398 0.00075
-0.036 0.0311769145362398 0.00075
-0.033 0.0311769145362398 0.00075
-0.03 0.0311769145362398 0.00075
-0.027 0.0311769145362398 0.00075
-0.024 0.0311769145362398 0.00075
-0.021 0.0311769145362398 0.00075
-0.018 0.0311769145362398 0.00075
-0.015 0.0311769145362398 0.00075
-0.012 0.0311769145362398 0.00075
-0.009 0.0311769145362398 0.00075
-0.006 0.0311769145362398 0.00075
-0.003 0.0311769145362398 0.00075
0 0.0311769145362398 0.00075
0.003 0.0311769145362398 0.00075
0.006 0.0311769145362398 0.00075
0.009 0.0311769145362398 0.00075
0.012 0.0311769145362398 0.00075
0.015 0.0311769145362398 0.00075
0.018 0.0311769145362398 0.00075
0.021 0.0311769145362398 0.00075
0.024 0.0311769145362398 0.00075
0.027 0.0311769145362398 0.00075
0.03 0.0311769145362398 0.00075
0.033 0.0311769145362398 0.00075
0.036 0.0311769145362398 0.00075
0.039 0.0311769145362398 0.00075
0.042 0.0311769145362398 0.00075
0.045 0.0311769145362398 0.00075

# calibration marks at y = 0.033775 m
-0.0435 0.0337749907475931 0.00075
-0.0405 0.0337749907475931 0.00075
-0.0375 0.0337749907475931 0.00075
-0.0345 0.0337749907475931 0.00075
-0.0315 0.0337749907475931 0.00075
-0.0285 0.0337749907475931 0.00075
-0.0255 0.0337749907475931 0.00075
-0.0225 0.0337749907475931 0.00075
-0.0195 0.0337749907475931 0.00075
-0.0165 0.0337749907475931 0.00075
-0.0135 0.0337749907475931 0.00075
-0.0105 0.0337749907475931 0.00075
-0.0075 0.0337749907475931 0.00075
-0.0045 0.0337749907475931 0.00075
-0.0015 0.0337749907475931 0.00075
0.0015 0.0337749907475931 0.00075
0.0045 0.0337749907475931 0.00075
0.0075 0.0337749907475931 0.00075
0.0105 0.0337749907475931 0.00075