# Plate Description Version 3
# HALCON Version 22.11 --  Mon Jun 12 09:44:29 2023
# Description of the standard calibration plate
# used for the camera calibration in HALCON
# (generated by create_caltab)
#
#

# 27 rows x 31 columns
# Width, height of calibration plate [meter]: 0.132, 0.100067
# Distance between mark centers [meter]: 0.004

# Number of marks in y-dimension (rows)
r 27

# Number of marks in x-dimension (columns)
c 31

# offset of coordinate system in z-dimension [meter] (optional):
z 0

# rim of the calibration plate (min x, max y, max x, min y) [meter]:
o -0.065 0.0500333209967908 0.067 -0.0500333209967908

# polarity of the marks (light or dark):
p light

# number of finder pattern marks:
f 5

# position of the finder patterns (central mark):  x y [index]
15 13
6 6
24 6
6 20
24 20

# calibration marks:  x y radius [meter]

# calibration marks at y = -0.0450333 m
-0.058 -0.0450333209967908 0.001
-0.054 -0.0450333209967908 0.001
-0.05 -0.0450333209967908 0.001
-0.046 -0.0450333209967908 0.001
-0.042 -0.0450333209967908 0.001
-0.038 -0.0450333209967908 0.001
-0.034 -0.0450333209967908 0.001
-0.03 -0.0450333209967908 0.001
-0.026 -0.0450333209967908 0.001
-0.022 -0.0450333209967908 0.001
-0.018 -0.0450333209967908 0.001
-0.014 -0.0450333209967908 0.001
-0.01 -0.0450333209967908 0.001
-0.006 -0.0450333209967908 0.001
-0.002 -0.0450333209967908 0.001
0.002 -0.0450333209967908 0.001
0.006 -0.0450333209967908 0.001
0.01 -0.0450333209967908 0.001
0.014 -0.0450333209967908 0.001
0.018 -0.0450333209967908 0.001
0.022 -0.0450333209967908 0.001
0.026 -0.0450333209967908 0.001
0.03 -0.0450333209967908 0.001
0.034 -0.0450333209967908 0.001
0.038 -0.0450333209967908 0.001
0.042 -0.0450333209967908 0.001
0.046 -0.0450333209967908 0.001
0.05 -0.0450333209967908 0.001
0.054 -0.0450333209967908 0.001
0.058 -0.0450333209967908 0.001
0.062 -0.0450333209967908 0.001

# calibration marks at y = -0.0415692 m
-0.06 -0.0415692193816531 0.001
-0.056 -0.0415692193816531 0.001
-0.052 -0.0415692193816531 0.001
-0.048 -0.0415692193816531 0.001
-0.044 -0.0415692193816531 0.001
-0.04 -0.0415692193816531 0.001
-0.036 -0.0415692193816531 0.001
-0.032 -0.0415692193816531 0.001
-0.028 -0.0415692193816531 0.001
-0.024 -0.0415692193816531 0.001
-0.02 -0.0415692193816531 0.001
-0.016 -0.0415692193816531 0.001
-0.012 -0.0415692193816531 0.001
-0.008 -0.0415692193816531 0.001
-0.004 -0.0415692193816531 0.001
0 -0.0415692193816531 0.001
0.004 -0.0415692193816531 0.001
0.008 -0.0415692193816531 0.001
0.012 -0.0415692193816531 0.001
0.016 -0.0415692193816531 0.001
0.02 -0.0415692193816531 0.001
0.024 -0.0415692193816531 0.001
0.028 -0.0415692193816531 0.001
0.032 -0.0415692193816531 0.001
0.036 -0.0415692193816531 0.001
0.04 -0.0415692193816531 0.001
0.044 -0.0415692193816531 0.001
0.048 -0.0415692193816531 0.001
0.052 -0.0415692193816531 0.001
0.056 -0.0415692193816531 0.001
0.06 -0.0415692193816531 0.001

# calibration marks at y = -0.0381051 m
-0.058 -0.0381051177665153 0.001
-0.054 -0.0381051177665153 0.001
-0.05 -0.0381051177665153 0.001
-0.046 -0.0381051177665153 0.001
-0.042 -0.0381051177665153 0.001
-0.038 -0.0381051177665153 0.001
-0.034 -0.0381051177665153 0.001
-0.03 -0.0381051177665153 0.001
-0.026 -0.0381051177665153 0.001
-0.022 -0.0381051177665153 0.001
-0.018 -0.0381051177665153 0.001
-0.014 -0.0381051177665153 0.001
-0.01 -0.0381051177665153 0.001
-0.006 -0.0381051177665153 0.001
-0.002 -0.0381051177665153 0.001
0.002 -0.0381051177665153 0.001
0.006 -0.0381051177665153 0.001
0.01 -0.0381051177665153 0.001
0.014 -0.0381051177665153 0.001
0.018 -0.0381051177665153 0.001
0.022 -0.0381051177665153 0.001
0.026 -0.0381051177665153 0.001
0.03 -0.0381051177665153 0.001
0.034 -0.0381051177665153 0.001
0.038 -0.0381051177665153 0.001
0.042 -0.0381051177665153 0.001
0.046 -0.0381051177665153 0.001
0.05 -0.0381051177665153 0.001
0.054 -0.0381051177665153 0.001
0.058 -0.0381051177665153 0.001
0.062 -0.0381051177665153 0.001

# calibration marks at y = -0.034641 m
-0.06 -0.0346410161513775 0.001
-0.056 -0.0346410161513775 0.001
-0.052 -0.0346410161513775 0.001
-0.048 -0.0346410161513775 0.001
-0.044 -0.0346410161513775 0.001
-0.04 -0.0346410161513775 0.001
-0.036 -0.0346410161513775 0.001
-0.032 -0.0346410161513775 0.001
-0.028 -0.0346410161513775 0.001
-0.024 -0.0346410161513775 0.001
-0.02 -0.0346410161513775 0.001
-0.016 -0.0346410161513775 0.001
-0.012 -0.0346410161513775 0.001
-0.008 -0.0346410161513775 0.001
-0.004 -0.0346410161513775 0.001
0 -0.0346410161513775 0.001
0.004 -0.0346410161513775 0.001
0.008 -0.0346410161513775 0.001
0.012 -0.0346410161513775 0.001
0.016 -0.0346410161513775 0.001
0.02 -0.0346410161513775 0.001
0.024 -0.0346410161513775 0.001
0.028 -0.0346410161513775 0.001
0.032 -0.0346410161513775 0.001
0.036 -0.0346410161513775 0.001
0.04 -0.0346410161513775 0.001
0.044 -0.0346410161513775 0.001
0.048 -0.0346410161513775 0.001
0.052 -0.0346410161513775 0.001
0.056 -0.0346410161513775 0.001
0.06 -0.0346410161513775 0.001

# calibration marks at y = -0.0311769 m
-0.058 -0.0311769145362398 0.001
-0.054 -0.0311769145362398 0.001
-0.05 -0.0311769145362398 0.001
-0.046 -0.0311769145362398 0.001
-0.042 -0.0311769145362398 0.001
-0.038 -0.0311769145362398 0.001
-0.034 -0.0311769145362398 0.001
-0.03 -0.0311769145362398 0.001
-0.026 -0.0311769145362398 0.001
-0.022 -0.0311769145362398 0.001
-0.018 -0.0311769145362398 0.001
-0.014 -0.0311769145362398 0.001
-0.01 -0.0311769145362398 0.001
-0.006 -0.0311769145362398 0.001
-0.002 -0.0311769145362398 0.001
0.002 -0.0311769145362398 0.001
0.006 -0.0311769145362398 0.001
0.01 -0.0311769145362398 0.001
0.014 -0.0311769145362398 0.001
0.018 -0.0311769145362398 0.001
0.022 -0.0311769145362398 0.001
0.026 -0.0311769145362398 0.001
0.03 -0.0311769145362398 0.001
0.034 -0.0311769145362398 0.001
0.038 -0.0311769145362398 0.001
0.042 -0.0311769145362398 0.001
0.046 -0.0311769145362398 0.001
0.05 -0.0311769145362398 0.001
0.054 -0.0311769145362398 0.001
0.058 -0.0311769145362398 0.001
0.062 -0.0311769145362398 0.001

# calibration marks at y = -0.0277128 m
-0.06 -0.027712812921102 0.001
-0.056 -0.027712812921102 0.001
-0.052 -0.027712812921102 0.001
-0.048 -0.027712812921102 0.001
-0.044 -0.027712812921102 0.001
-0.04 -0.027712812921102 0.001
-0.036 -0.027712812921102 0.001
-0.032 -0.027712812921102 0.001
-0.028 -0.027712812921102 0.001
-0.024 -0.027712812921102 0.001
-0.02 -0.027712812921102 0.001
-0.016 -0.027712812921102 0.001
-0.012 -0.027712812921102 0.001
-0.008 -0.027712812921102 0.001
-0.004 -0.027712812921102 0.001
0 -0.027712812921102 0.001
0.004 -0.027712812921102 0.001
0.008 -0.027712812921102 0.001
0.012 -0.027712812921102 0.001
0.016 -0.027712812921102 0.001
0.02 -0.027712812921102 0.001
0.024 -0.027712812921102 0.001
0.028 -0.027712812921102 0.001
0.032 -0.027712812921102 0.001
0.036 -0.027712812921102 0.001
0.04 -0.027712812921102 0.001
0.044 -0.027712812921102 0.001
0.048 -0.027712812921102 0.001
0.052 -0.027712812921102 0.001
0.056 -0.027712812921102 0.001
0.06 -0.027712812921102 0.001

# calibration marks at y = -0.0242487 m
-0.058 -0.0242487113059643 0.001
-0.054 -0.0242487113059643 0.001
-0.05 -0.0242487113059643 0.001
-0.046 -0.0242487113059643 0.001
-0.042 -0.0242487113059643 0.001
-0.038 -0.0242487113059643 0.001
-0.034 -0.0242487113059643 0.001
-0.03 -0.0242487113059643 0.001
-0.026 -0.0242487113059643 0.001
-0.022 -0.0242487113059643 0.001
-0.018 -0.0242487113059643 0.001
-0.014 -0.0242487113059643 0.001
-0.01 -0.0242487113059643 0.001
-0.006 -0.0242487113059643 0.001
-0.002 -0.0242487113059643 0.001
0.002 -0.0242487113059643 0.001
0.006 -0.0242487113059643 0.001
0.01 -0.0242487113059643 0.001
0.014 -0.0242487113059643 0.001
0.018 -0.0242487113059643 0.001
0.022 -0.0242487113059643 0.001
0.026 -0.0242487113059643 0.001
0.03 -0.0242487113059643 0.001
0.034 -0.0242487113059643 0.001
0.038 -0.0242487113059643 0.001
0.042 -0.0242487113059643 0.001
0.046 -0.0242487113059643 0.001
0.05 -0.0242487113059643 0.001
0.054 -0.0242487113059643 0.001
0.058 -0.0242487113059643 0.001
0.062 -0.0242487113059643 0.001

# calibration marks at y = -0.0207846 m
-0.06 -0.0207846096908265 0.001
-0.056 -0.0207846096908265 0.001
-0.052 -0.0207846096908265 0.001
-0.048 -0.0207846096908265 0.001
-0.044 -0.0207846096908265 0.001
-0.04 -0.0207846096908265 0.001
-0.036 -0.0207846096908265 0.001
-0.032 -0.0207846096908265 0.001
-0.028 -0.0207846096908265 0.001
-0.024 -0.0207846096908265 0.001
-0.02 -0.0207846096908265 0.001
-0.016 -0.0207846096908265 0.001
-0.012 -0.0207846096908265 0.001
-0.008 -0.0207846096908265 0.001
-0.004 -0.0207846096908265 0.001
0 -0.0207846096908265 0.001
0.004 -0.0207846096908265 0.001
0.008 -0.0207846096908265 0.001
0.012 -0.0207846096908265 0.001
0.016 -0.0207846096908265 0.001
0.02 -0.0207846096908265 0.001
0.024 -0.0207846096908265 0.001
0.028 -0.0207846096908265 0.001
0.032 -0.0207846096908265 0.001
0.036 -0.0207846096908265 0.001
0.04 -0.0207846096908265 0.001
0.044 -0.0207846096908265 0.001
0.048 -0.0207846096908265 0.001
0.052 -0.0207846096908265 0.001
0.056 -0.0207846096908265 0.001
0.06 -0.0207846096908265 0.001

# calibration marks at y = -0.0173205 m
-0.058 -0.0173205080756888 0.001
-0.054 -0.0173205080756888 0.001
-0.05 -0.0173205080756888 0.001
-0.046 -0.0173205080756888 0.001
-0.042 -0.0173205080756888 0.001
-0.038 -0.0173205080756888 0.001
-0.034 -0.0173205080756888 0.001
-0.03 -0.0173205080756888 0.001
-0.026 -0.0173205080756888 0.001
-0.022 -0.0173205080756888 0.001
-0.018 -0.0173205080756888 0.001
-0.014 -0.0173205080756888 0.001
-0.01 -0.0173205080756888 0.001
-0.006 -0.0173205080756888 0.001
-0.002 -0.0173205080756888 0.001
0.002 -0.0173205080756888 0.001
0.006 -0.0173205080756888 0.001
0.01 -0.0173205080756888 0.001
0.014 -0.0173205080756888 0.001
0.018 -0.0173205080756888 0.001
0.022 -0.0173205080756888 0.001
0.026 -0.0173205080756888 0.001
0.03 -0.0173205080756888 0.001
0.034 -0.0173205080756888 0.001
0.038 -0.0173205080756888 0.001
0.042 -0.0173205080756888 0.001
0.046 -0.0173205080756888 0.001
0.05 -0.0173205080756888 0.001
0.054 -0.0173205080756888 0.001
0.058 -0.0173205080756888 0.001
0.062 -0.0173205080756888 0.001

# calibration marks at y = -0.0138564 m
-0.06 -0.013856406460551 0.001
-0.056 -0.013856406460551 0.001
-0.052 -0.013856406460551 0.001
-0.048 -0.013856406460551 0.001
-0.044 -0.013856406460551 0.001
-0.04 -0.013856406460551 0.001
-0.036 -0.013856406460551 0.001
-0.032 -0.013856406460551 0.001
-0.028 -0.013856406460551 0.001
-0.024 -0.013856406460551 0.001
-0.02 -0.013856406460551 0.001
-0.016 -0.013856406460551 0.001
-0.012 -0.013856406460551 0.001
-0.008 -0.013856406460551 0.001
-0.004 -0.013856406460551 0.001
0 -0.013856406460551 0.001
0.004 -0.013856406460551 0.001
0.008 -0.013856406460551 0.001
0.012 -0.013856406460551 0.001
0.016 -0.013856406460551 0.001
0.02 -0.013856406460551 0.001
0.024 -0.013856406460551 0.001
0.028 -0.013856406460551 0.001
0.032 -0.013856406460551 0.001
0.036 -0.013856406460551 0.001
0.04 -0.013856406460551 0.001
0.044 -0.013856406460551 0.001
0.048 -0.013856406460551 0.001
0.052 -0.013856406460551 0.001
0.056 -0.013856406460551 0.001
0.06 -0.013856406460551 0.001

# calibration marks at y = -0.0103923 m
-0.058 -0.0103923048454133 0.001
-0.054 -0.0103923048454133 0.001
-0.05 -0.0103923048454133 0.001
-0.046 -0.0103923048454133 0.001
-0.042 -0.0103923048454133 0.001
-0.038 -0.0103923048454133 0.001
-0.034 -0.0103923048454133 0.001
-0.03 -0.0103923048454133 0.001
-0.026 -0.0103923048454133 0.001
-0.022 -0.0103923048454133 0.001
-0.018 -0.0103923048454133 0.001
-0.014 -0.0103923048454133 0.001
-0.01 -0.0103923048454133 0.001
-0.006 -0.0103923048454133 0.001
-0.002 -0.0103923048454133 0.001
0.002 -0.0103923048454133 0.001
0.006 -0.0103923048454133 0.001
0.01 -0.0103923048454133 0.001
0.014 -0.0103923048454133 0.001
0.018 -0.0103923048454133 0.001
0.022 -0.0103923048454133 0.001
0.026 -0.0103923048454133 0.001
0.03 -0.0103923048454133 0.001
0.034 -0.0103923048454133 0.001
0.038 -0.0103923048454133 0.001
0.042 -0.0103923048454133 0.001
0.046 -0.0103923048454133 0.001
0.05 -0.0103923048454133 0.001
0.054 -0.0103923048454133 0.001
0.058 -0.0103923048454133 0.001
0.062 -0.0103923048454133 0.001

# calibration marks at y = -0.0069282 m
-0.06 -0.00692820323027551 0.001
-0.056 -0.00692820323027551 0.001
-0.052 -0.00692820323027551 0.001
-0.048 -0.00692820323027551 0.001
-0.044 -0.00692820323027551 0.001
-0.04 -0.00692820323027551 0.001
-0.036 -0.00692820323027551 0.001
-0.032 -0.00692820323027551 0.001
-0.028 -0.00692820323027551 0.001
-0.024 -0.00692820323027551 0.001
-0.02 -0.00692820323027551 0.001
-0.016 -0.00692820323027551 0.001
-0.012 -0.00692820323027551 0.001
-0.008 -0.00692820323027551 0.001
-0.004 -0.00692820323027551 0.001
0 -0.00692820323027551 0.001
0.004 -0.00692820323027551 0.001
0.008 -0.00692820323027551 0.001
0.012 -0.00692820323027551 0.001
0.016 -0.00692820323027551 0.001
0.02 -0.00692820323027551 0.001
0.024 -0.00692820323027551 0.001
0.028 -0.00692820323027551 0.001
0.032 -0.00692820323027551 0.001
0.036 -0.00692820323027551 0.001
0.04 -0.00692820323027551 0.001
0.044 -0.00692820323027551 0.001
0.048 -0.00692820323027551 0.001
0.052 -0.00692820323027551 0.001
0.056 -0.00692820323027551 0.001
0.06 -0.00692820323027551 0.001

# calibration marks at y = -0.0034641 m
-0.058 -0.00346410161513775 0.001
-0.054 -0.00346410161513775 0.001
-0.05 -0.00346410161513775 0.001
-0.046 -0.00346410161513775 0.001
-0.042 -0.00346410161513775 0.001
-0.038 -0.00346410161513775 0.001
-0.034 -0.00346410161513775 0.001
-0.03 -0.00346410161513775 0.001
-0.026 -0.00346410161513775 0.001
-0.022 -0.00346410161513775 0.001
-0.018 -0.00346410161513775 0.001
-0.014 -0.00346410161513775 0.001
-0.01 -0.00346410161513775 0.001
-0.006 -0.00346410161513775 0.001
-0.002 -0.00346410161513775 0.001
0.002 -0.00346410161513775 0.001
0.006 -0.00346410161513775 0.001
0.01 -0.00346410161513775 0.001
0.014 -0.00346410161513775 0.001
0.018 -0.00346410161513775 0.001
0.022 -0.00346410161513775 0.001
0.026 -0.00346410161513775 0.001
0.03 -0.00346410161513775 0.001
0.034 -0.00346410161513775 0.001
0.038 -0.00346410161513775 0.001
0.042 -0.00346410161513775 0.001
0.046 -0.00346410161513775 0.001
0.05 -0.00346410161513775 0.001
0.054 -0.00346410161513775 0.001
0.058 -0.00346410161513775 0.001
0.062 -0.00346410161513775 0.001

# calibration marks at y = 0 m
-0.06 0 0.001
-0.056 0 0.001
-0.052 0 0.001
-0.048 0 0.001
-0.044 0 0.001
-0.04 0 0.001
-0.036 0 0.001
-0.032 0 0.001
-0.028 0 0.001
-0.024 0 0.001
-0.02 0 0.001
-0.016 0 0.001
-0.012 0 0.001
-0.008 0 0.001
-0.004 0 0.001
0 0 0.001
0.004 0 0.001
0.008 0 0.001
0.012 0 0.001
0.016 0 0.001
0.02 0 0.001
0.024 0 0.001
0.028 0 0.001
0.032 0 0.001
0.036 0 0.001
0.04 0 0.001
0.044 0 0.001
0.048 0 0.001
0.052 0 0.001
0.056 0 0.001
0.06 0 0.001

# calibration marks at y = 0.0034641 m
-0.058 0.00346410161513775 0.001
-0.054 0.00346410161513775 0.001
-0.05 0.00346410161513775 0.001
-0.046 0.00346410161513775 0.001
-0.042 0.00346410161513775 0.001
-0.038 0.00346410161513775 0.001
-0.034 0.00346410161513775 0.001
-0.03 0.00346410161513775 0.001
-0.026 0.00346410161513775 0.001
-0.022 0.00346410161513775 0.001
-0.018 0.00346410161513775 0.001
-0.014 0.00346410161513775 0.001
-0.01 0.00346410161513775 0.001
-0.006 0.00346410161513775 0.001
-0.002 0.00346410161513775 0.001
0.002 0.00346410161513775 0.001
0.006 0.00346410161513775 0.001
0.01 0.00346410161513775 0.001
0.014 0.00346410161513775 0.001
0.018 0.00346410161513775 0.001
0.022 0.00346410161513775 0.001
0.026 0.00346410161513775 0.001
0.03 0.00346410161513775 0.001
0.034 0.00346410161513775 0.001
0.038 0.00346410161513775 0.001
0.042 0.00346410161513775 0.001
0.046 0.00346410161513775 0.001
0.05 0.00346410161513775 0.001
0.054 0.00346410161513775 0.001
0.058 0.00346410161513775 0.001
0.062 0.00346410161513775 0.001

# calibration marks at y = 0.0069282 m
-0.06 0.00692820323027551 0.001
-0.056 0.00692820323027551 0.001
-0.052 0.00692820323027551 0.001
-0.048 0.00692820323027551 0.001
-0.044 0.00692820323027551 0.001
-0.04 0.00692820323027551 0.001
-0.036 0.00692820323027551 0.001
-0.032 0.00692820323027551 0.001
-0.028 0.00692820323027551 0.001
-0.024 0.00692820323027551 0.001
-0.02 0.00692820323027551 0.001
-0.016 0.00692820323027551 0.001
-0.012 0.00692820323027551 0.001
-0.008 0.00692820323027551 0.001
-0.004 0.00692820323027551 0.001
0 0.00692820323027551 0.001
0.004 0.00692820323027551 0.001
0.008 0.00692820323027551 0.001
0.012 0.00692820323027551 0.001
0.016 0.00692820323027551 0.001
0.02 0.00692820323027551 0.001
0.024 0.00692820323027551 0.001
0.028 0.00692820323027551 0.001
0.032 0.00692820323027551 0.001
0.036 0.00692820323027551 0.001
0.04 0.00692820323027551 0.001
0.044 0.00692820323027551 0.001
0.048 0.00692820323027551 0.001
0.052 0.00692820323027551 0.001
0.056 0.00692820323027551 0.001
0.06 0.00692820323027551 0.001

# calibration marks at y = 0.0103923 m
-0.058 0.0103923048454133 0.001
-0.054 0.0103923048454133 0.001
-0.05 0.0103923048454133 0.001
-0.046 0.0103923048454133 0.001
-0.042 0.0103923048454133 0.001
-0.038 0.0103923048454133 0.001
-0.034 0.0103923048454133 0.001
-0.03 0.0103923048454133 0.001
-0.026 0.0103923048454133 0.001
-0.022 0.0103923048454133 0.001
-0.018 0.0103923048454133 0.001
-0.014 0.0103923048454133 0.001
-0.01 0.0103923048454133 0.001
-0.006 0.0103923048454133 0.001
-0.002 0.0103923048454133 0.001
0.002 0.0103923048454133 0.001
0.006 0.0103923048454133 0.001
0.01 0.0103923048454133 0.001
0.014 0.0103923048454133 0.001
0.018 0.0103923048454133 0.001
0.022 0.0103923048454133 0.001
0.026 0.0103923048454133 0.001
0.03 0.0103923048454133 0.001
0.034 0.0103923048454133 0.001
0.038 0.0103923048454133 0.001
0.042 0.0103923048454133 0.001
0.046 0.0103923048454133 0.001
0.05 0.0103923048454133 0.001
0.054 0.0103923048454133 0.001
0.058 0.0103923048454133 0.001
0.062 0.0103923048454133 0.001

# calibration marks at y = 0.0138564 m
-0.06 0.013856406460551 0.001
-0.056 0.013856406460551 0.001
-0.052 0.013856406460551 0.001
-0.048 0.013856406460551 0.001
-0.044 0.013856406460551 0.001
-0.04 0.013856406460551 0.001
-0.036 0.013856406460551 0.001
-0.032 0.013856406460551 0.001
-0.028 0.013856406460551 0.001
-0.024 0.013856406460551 0.001
-0.02 0.013856406460551 0.001
-0.016 0.013856406460551 0.001
-0.012 0.013856406460551 0.001
-0.008 0.013856406460551 0.001
-0.004 0.013856406460551 0.001
0 0.013856406460551 0.001
0.004 0.013856406460551 0.001
0.008 0.013856406460551 0.001
0.012 0.013856406460551 0.001
0.016 0.013856406460551 0.001
0.02 0.013856406460551 0.001
0.024 0.013856406460551 0.001
0.028 0.013856406460551 0.001
0.032 0.013856406460551 0.001
0.036 0.013856406460551 0.001
0.04 0.013856406460551 0.001
0.044 0.013856406460551 0.001
0.048 0.013856406460551 0.001
0.052 0.013856406460551 0.001
0.056 0.013856406460551 0.001
0.06 0.013856406460551 0.001

# calibration marks at y = 0.0173205 m
-0.058 0.0173205080756888 0.001
-0.054 0.0173205080756888 0.001
-0.05 0.0173205080756888 0.001
-0.046 0.0173205080756888 0.001
-0.042 0.0173205080756888 0.001
-0.038 0.0173205080756888 0.001
-0.034 0.0173205080756888 0.001
-0.03 0.0173205080756888 0.001
-0.026 0.0173205080756888 0.001
-0.022 0.0173205080756888 0.001
-0.018 0.0173205080756888 0.001
-0.014 0.0173205080756888 0.001
-0.01 0.0173205080756888 0.001
-0.006 0.0173205080756888 0.001
-0.002 0.0173205080756888 0.001
0.002 0.0173205080756888 0.001
0.006 0.0173205080756888 0.001
0.01 0.0173205080756888 0.001
0.014 0.0173205080756888 0.001
0.018 0.0173205080756888 0.001
0.022 0.0173205080756888 0.001
0.026 0.0173205080756888 0.001
0.03 0.0173205080756888 0.001
0.034 0.0173205080756888 0.001
0.038 0.0173205080756888 0.001
0.042 0.0173205080756888 0.001
0.046 0.0173205080756888 0.001
0.05 0.0173205080756888 0.001
0.054 0.0173205080756888 0.001
0.058 0.0173205080756888 0.001
0.062 0.0173205080756888 0.001

# calibration marks at y = 0.0207846 m
-0.06 0.0207846096908265 0.001
-0.056 0.0207846096908265 0.001
-0.052 0.0207846096908265 0.001
-0.048 0.0207846096908265 0.001
-0.044 0.0207846096908265 0.001
-0.04 0.0207846096908265 0.001
-0.036 0.0207846096908265 0.001
-0.032 0.0207846096908265 0.001
-0.028 0.0207846096908265 0.001
-0.024 0.0207846096908265 0.001
-0.02 0.0207846096908265 0.001
-0.016 0.0207846096908265 0.001
-0.012 0.0207846096908265 0.001
-0.008 0.0207846096908265 0.001
-0.004 0.0207846096908265 0.001
0 0.0207846096908265 0.001
0.004 0.0207846096908265 0.001
0.008 0.0207846096908265 0.001
0.012 0.0207846096908265 0.001
0.016 0.0207846096908265 0.001
0.02 0.0207846096908265 0.001
0.024 0.0207846096908265 0.001
0.028 0.0207846096908265 0.001
0.032 0.0207846096908265 0.001
0.036 0.0207846096908265 0.001
0.04 0.0207846096908265 0.001
0.044 0.0207846096908265 0.001
0.048 0.0207846096908265 0.001
0.052 0.0207846096908265 0.001
0.056 0.0207846096908265 0.001
0.06 0.0207846096908265 0.001

# calibration marks at y = 0.0242487 m
-0.058 0.0242487113059643 0.001
-0.054 0.0242487113059643 0.001
-0.05 0.0242487113059643 0.001
-0.046 0.0242487113059643 0.001
-0.042 0.0242487113059643 0.001
-0.038 0.0242487113059643 0.001
-0.034 0.0242487113059643 0.001
-0.03 0.0242487113059643 0.001
-0.026 0.0242487113059643 0.001
-0.022 0.0242487113059643 0.001
-0.018 0.0242487113059643 0.001
-0.014 0.0242487113059643 0.001
-0.01 0.0242487113059643 0.001
-0.006 0.0242487113059643 0.001
-0.002 0.0242487113059643 0.001
0.002 0.0242487113059643 0.001
0.006 0.0242487113059643 0.001
0.01 0.0242487113059643 0.001
0.014 0.0242487113059643 0.001
0.018 0.0242487113059643 0.001
0.022 0.0242487113059643 0.001
0.026 0.0242487113059643 0.001
0.03 0.0242487113059643 0.001
0.034 0.0242487113059643 0.001
0.038 0.0242487113059643 0.001
0.042 0.0242487113059643 0.001
0.046 0.0242487113059643 0.001
0.05 0.0242487113059643 0.001
0.054 0.0242487113059643 0.001
0.058 0.0242487113059643 0.001
0.062 0.0242487113059643 0.001

# calibration marks at y = 0.0277128 m
-0.06 0.027712812921102 0.001
-0.056 0.027712812921102 0.001
-0.052 0.027712812921102 0.001
-0.048 0.027712812921102 0.001
-0.044 0.027712812921102 0.001
-0.04 0.027712812921102 0.001
-0.036 0.027712812921102 0.001
-0.032 0.027712812921102 0.001
-0.028 0.027712812921102 0.001
-0.024 0.027712812921102 0.001
-0.02 0.027712812921102 0.001
-0.016 0.027712812921102 0.001
-0.012 0.027712812921102 0.001
-0.008 0.027712812921102 0.001
-0.004 0.027712812921102 0.001
0 0.027712812921102 0.001
0.004 0.027712812921102 0.001
0.008 0.027712812921102 0.001
0.012 0.027712812921102 0.001
0.016 0.027712812921102 0.001
0.02 0.027712812921102 0.001
0.024 0.027712812921102 0.001
0.028 0.027712812921102 0.001
0.032 0.027712812921102 0.001
0.036 0.027712812921102 0.001
0.04 0.027712812921102 0.001
0.044 0.027712812921102 0.001
0.048 0.027712812921102 0.001
0.052 0.027712812921102 0.001
0.056 0.027712812921102 0.001
0.06 0.027712812921102 0.001

# calibration marks at y = 0.0311769 m
-0.058 0.0311769145362398 0.001
-0.054 0.0311769145362398 0.001
-0.05 0.0311769145362398 0.001
-0.046 0.0311769145362398 0.001
-0.042 0.0311769145362398 0.001
-0.038 0.0311769145362398 0.001
-0.034 0.0311769145362398 0.001
-0.03 0.0311769145362398 0.001
-0.026 0.0311769145362398 0.001
-0.022 0.0311769145362398 0.001
-0.018 0.0311769145362398 0.001
-0.014 0.0311769145362398 0.001
-0.01 0.0311769145362398 0.001
-0.006 0.0311769145362398 0.001
-0.002 0.0311769145362398 0.001
0.002 0.0311769145362398 0.001
0.006 0.0311769145362398 0.001
0.01 0.0311769145362398 0.001
0.014 0.0311769145362398 0.001
0.018 0.0311769145362398 0.001
0.022 0.0311769145362398 0.001
0.026 0.0311769145362398 0.001
0.03 0.0311769145362398 0.001
0.034 0.0311769145362398 0.001
0.038 0.0311769145362398 0.001
0.042 0.0311769145362398 0.001
0.046 0.0311769145362398 0.001
0.05 0.0311769145362398 0.001
0.054 0.0311769145362398 0.001
0.058 0.0311769145362398 0.001
0.062 0.0311769145362398 0.001

# calibration marks at y = 0.034641 m
-0.06 0.0346410161513775 0.001
-0.056 0.0346410161513775 0.001
-0.052 0.0346410161513775 0.001
-0.048 0.0346410161513775 0.001
-0.044 0.0346410161513775 0.001
-0.04 0.0346410161513775 0.001
-0.036 0.0346410161513775 0.001
-0.032 0.0346410161513775 0.001
-0.028 0.0346410161513775 0.001
-0.024 0.0346410161513775 0.001
-0.02 0.0346410161513775 0.001
-0.016 0.0346410161513775 0.001
-0.012 0.0346410161513775 0.001
-0.008 0.0346410161513775 0.001
-0.004 0.0346410161513775 0.001
0 0.0346410161513775 0.001
0.004 0.0346410161513775 0.001
0.008 0.0346410161513775 0.001
0.012 0.0346410161513775 0.001
0.016 0.0346410161513775 0.001
0.02 0.0346410161513775 0.001
0.024 0.0346410161513775 0.001
0.028 0.0346410161513775 0.001
0.032 0.0346410161513775 0.001
0.036 0.0346410161513775 0.001
0.04 0.0346410161513775 0.001
0.044 0.0346410161513775 0.001
0.048 0.0346410161513775 0.001
0.052 0.0346410161513775 0.001
0.056 0.0346410161513775 0.001
0.06 0.0346410161513775 0.001

# calibration marks at y = 0.0381051 m
-0.058 0.0381051177665153 0.001
-0.054 0.0381051177665153 0.001
-0.05 0.0381051177665153 0.001
-0.046 0.0381051177665153 0.001
-0.042 0.0381051177665153 0.001
-0.038 0.0381051177665153 0.001
-0.034 0.0381051177665153 0.001
-0.03 0.0381051177665153 0.001
-0.026 0.0381051177665153 0.001
-0.022 0.0381051177665153 0.001
-0.018 0.0381051177665153 0.001
-0.014 0.0381051177665153 0.001
-0.01 0.0381051177665153 0.001
-0.006 0.0381051177665153 0.001
-0.002 0.0381051177665153 0.001
0.002 0.0381051177665153 0.001
0.006 0.0381051177665153 0.001
0.01 0.0381051177665153 0.001
0.014 0.0381051177665153 0.001
0.018 0.0381051177665153 0.001
0.022 0.0381051177665153 0.001
0.026 0.0381051177665153 0.001
0.03 0.0381051177665153 0.001
0.034 0.0381051177665153 0.001
0.038 0.0381051177665153 0.001
0.042 0.0381051177665153 0.001
0.046 0.0381051177665153 0.001
0.05 0.0381051177665153 0.001
0.054 0.0381051177665153 0.001
0.058 0.0381051177665153 0.001
0.062 0.0381051177665153 0.001

# calibration marks at y = 0.0415692 m
-0.06 0.0415692193816531 0.001
-0.056 0.0415692193816531 0.001
-0.052 0.0415692193816531 0.001
-0.048 0.0415692193816531 0.001
-0.044 0.0415692193816531 0.001
-0.04 0.0415692193816531 0.001
-0.036 0.0415692193816531 0.001
-0.032 0.0415692193816531 0.001
-0.028 0.0415692193816531 0.001
-0.024 0.0415692193816531 0.001
-0.02 0.0415692193816531 0.001
-0.016 0.0415692193816531 0.001
-0.012 0.0415692193816531 0.001
-0.008 0.0415692193816531 0.001
-0.004 0.0415692193816531 0.001
0 0.0415692193816531 0.001
0.004 0.0415692193816531 0.001
0.008 0.0415692193816531 0.001
0.012 0.0415692193816531 0.001
0.016 0.0415692193816531 0.001
0.02 0.0415692193816531 0.001
0.024 0.0415692193816531 0.001
0.028 0.0415692193816531 0.001
0.032 0.0415692193816531 0.001
0.036 0.0415692193816531 0.001
0.04 0.0415692193816531 0.001
0.044 0.0415692193816531 0.001
0.048 0.0415692193816531 0.001
0.052 0.0415692193816531 0.001
0.056 0.0415692193816531 0.001
0.06 0.0415692193816531 0.001

# calibration marks at y = 0.0450333 m
-0.058 0.0450333209967908 0.001
-0.054 0.0450333209967908 0.001
-0.05 0.0450333209967908 0.001
-0.046 0.0450333209967908 0.001
-0.042 0.0450333209967908 0.001
-0.038 0.0450333209967908 0.001
-0.034 0.0450333209967908 0.001
-0.03 0.0450333209967908 0.001
-0.026 0.0450333209967908 0.001
-0.022 0.0450333209967908 0.001
-0.018 0.0450333209967908 0.001
-0.014 0.0450333209967908 0.001
-0.01 0.0450333209967908 0.001
-0.006 0.0450333209967908 0.001
-0.002 0.0450333209967908 0.001
0.002 0.0450333209967908 0.001
0.006 0.0450333209967908 0.001
0.01 0.0450333209967908 0.001
0.014 0.0450333209967908 0.001
0.018 0.0450333209967908 0.001
0.022 0.0450333209967908 0.001
0.026 0.0450333209967908 0.001
0.03 0.0450333209967908 0.001
0.034 0.0450333209967908 0.001
0.038 0.0450333209967908 0.001
0.042 0.0450333209967908 0.001
0.046 0.0450333209967908 0.001
0.05 0.0450333209967908 0.001
0.054 0.0450333209967908 0.001
0.058 0.0450333209967908 0.001
0.062 0.0450333209967908 0.001
